@relation water_quality_potability

@attribute ph numeric
@attribute Hardness numeric
@attribute Solids numeric
@attribute Chloramines numeric
@attribute Sulfate numeric
@attribute Conductivity numeric
@attribute Organic_carbon numeric
@attribute Trihalomethanes numeric
@attribute Turbidity numeric
@attribute Potability {0,1}

@data
7.160466,195.712338,22636.785632,7.235746,336.794067,424.396711,14.376178,68.105888,3.991681,1
7.187738,193.202237,21263.028076,7.117409,333.997161,430.163405,14.206928,64.807703,3.957064,0
5.400302,140.739062,17266.593422,10.056852,328.358241,472.874073,11.256381,56.931906,4.824786,0
7.078913,196.886558,21539.185679,7.104867,335.223406,429.400333,14.344261,65.289765,3.909317,0
7.052283,194.971523,21659.468727,7.10179,335.669903,425.620822,14.100794,66.178504,3.98934,0
7.163458,195.749676,22395.707761,7.261156,333.247213,423.481346,14.289909,67.941823,4.011314,1
6.884981,138.440111,14893.206396,9.686435,319.134991,286.921558,14.184036,54.559077,4.584319,1
7.03504,196.333923,21248.890578,7.116868,335.284278,428.529997,14.170944,65.94964,3.949511,0
7.041584,194.5452,22289.608326,7.348172,335.557359,427.579016,14.382701,67.454498,4.011393,1
9.51966,204.080945,17258.188355,6.154073,310.716294,395.698538,17.061389,44.273379,3.994556,0
7.197123,195.361971,21272.265853,7.223056,334.724579,428.524771,14.48184,67.552578,3.915592,0
7.176222,197.227226,22426.133387,7.088845,328.768011,424.379066,14.570338,65.24033,4.005229,1
7.145276,195.203908,21537.214527,7.156452,334.269883,431.541929,14.283642,66.662257,4.00677,0
7.140512,195.725432,21443.442001,7.120157,334.16556,420.832545,14.518828,66.348186,3.967507,0
7.011413,198.574005,21301.053585,6.924761,337.049735,430.199013,14.251315,64.948591,3.96193,0
7.061725,195.840977,22108.091318,7.239844,334.921182,427.98217,14.381934,67.431938,4.062888,1
3.7225,163.639747,37962.167991,6.68457,326.694018,467.562973,14.567269,50.577979,3.662838,0
7.07726,194.560566,22719.955324,7.033983,330.651473,421.680086,14.494379,66.16493,4.044718,1
7.122344,193.441429,21826.907906,7.316506,331.358706,422.672142,14.383747,67.274617,4.015222,1
7.017745,197.227468,22243.985061,7.195855,331.39244,425.666501,14.223142,67.490119,3.959081,1
7.094607,195.588117,22716.710447,7.291059,333.880035,434.435435,14.354455,66.912807,4.040534,1
7.173667,197.561859,21929.816624,6.972746,334.680013,424.050639,14.626719,64.91528,3.955084,0
7.174755,195.523806,21031.575867,7.14327,336.87465,427.490955,14.293662,66.971408,3.952954,0
7.106355,195.744701,22464.394678,7.182941,328.613171,428.989334,14.527465,68.019662,3.969755,1
6.97521,195.743155,21090.753191,7.134044,338.078562,431.072521,14.66433,66.241518,3.95293,0
7.022643,195.485352,22033.243839,7.157212,332.919858,422.556035,14.397201,66.124672,3.99363,1
6.599594,198.323261,21078.887166,6.234231,331.495637,447.987791,12.936304,59.833619,4.702311,0
6.980093,193.27281,22554.492354,7.148316,331.233164,414.359061,14.061875,66.063569,3.953239,1
7.16908,198.92939,22498.872664,7.326282,339.063667,423.840658,14.535922,67.470219,3.954111,1
7.155917,198.481156,22251.489938,7.049416,333.90666,423.329143,14.1922,66.801698,4.052282,1
4.739549,162.246886,27215.902742,2.862535,372.815075,437.21759,15.130476,65.091291,2.942348,1
7.262358,197.315637,21523.078259,7.227959,334.67744,427.937137,14.172944,65.955988,4.015152,0
7.118495,198.018594,20643.157202,7.05845,333.534048,424.654468,14.305108,66.524282,3.966168,0
6.999911,194.678746,21279.721658,7.0765,334.981669,428.890463,14.287882,67.186145,3.932673,0
7.154208,195.146714,22214.103198,7.10336,331.948735,424.1311,14.508508,67.999776,4.041503,1
7.099067,197.323049,21164.287624,7.090548,335.60761,421.33131,14.114869,65.994892,3.929656,0
6.937279,194.340963,21214.651426,7.257167,335.702509,430.938507,14.503482,67.424165,4.007351,0
5.613563,204.569366,16615.908152,5.618949,316.099824,341.523672,15.173956,73.450164,3.465089,0
7.028207,194.863701,21730.995808,7.179284,334.175629,432.957366,14.301104,67.343752,3.934284,0
7.07963,195.300606,22196.531677,7.195829,334.221085,427.413704,14.266355,66.333562,4.070195,1
6.993277,196.612945,21634.749628,7.006465,335.055935,430.145867,14.438123,65.796282,3.901763,0
0.989912,133.216942,16922.853899,9.293289,444.375731,322.291191,10.430076,43.578466,5.160604,1
7.098566,192.948968,21932.199579,7.04917,335.24057,427.011494,14.111062,66.650084,3.95413,1
7.150046,238.79823,14708.474185,8.606774,450.914454,365.739122,14.966532,53.144979,2.633891,1
7.240293,197.704284,22482.009741,7.316133,328.99299,428.03886,14.133179,65.20729,4.0431,1
5.628313,192.340744,22856.742901,7.764693,343.039509,439.054759,15.199906,50.229944,4.061645,1
7.146624,196.358537,22360.740053,7.027812,336.039432,438.224133,14.427357,66.955779,3.96101,0
7.132191,195.992787,21800.110922,7.037633,332.323229,435.302596,14.31537,64.296449,3.947216,0
7.130099,275.67978,9480.617796,8.415948,295.618838,383.455068,18.322879,94.416301,1.986192,0
7.055709,195.048183,22116.329645,7.097688,336.69544,422.549136,14.47854,66.995058,3.927065,0
7.014071,195.062534,21724.342144,7.1991,332.983049,432.830966,14.412829,66.42293,3.93101,0
7.138367,198.526241,22541.440316,7.043468,328.469525,424.539566,14.31913,65.918837,4.04254,1
7.067744,196.645145,21506.230638,6.988947,334.675976,425.883641,14.314748,65.800959,4.003636,0
7.120998,196.172556,22602.681896,7.078029,326.390498,427.405249,14.760691,67.725508,4.029338,1
6.980723,195.629904,22108.636532,7.047299,334.279403,426.723799,14.574025,67.02606,3.999719,0
7.024322,194.646059,22229.895986,7.219954,331.013988,429.863368,14.336057,67.118792,4.006326,1
7.084976,194.961082,21384.642376,7.064887,333.790347,424.593456,14.255396,65.440112,3.996004,0
7.047634,195.044505,21660.900584,7.118831,333.029022,421.437128,14.226387,67.321636,4.004565,1
6.959221,195.879814,22225.716727,7.128321,331.758666,429.395689,13.997844,66.610877,4.038997,0
7.087469,195.20163,21319.233441,7.100278,330.064296,426.118794,14.226437,65.369292,3.977501,0
8.107092,213.029273,24531.86944,6.237222,322.097056,517.490049,14.352031,59.860286,2.769164,0
7.126063,197.72834,21530.03963,7.311009,331.293614,420.59406,14.227697,67.919903,3.989736,1
7.264555,193.869059,21915.398221,7.305412,333.88867,421.511678,14.002531,67.61214,3.98927,1
4.091411,146.789938,24252.458824,7.254981,282.693502,482.294404,10.611556,70.069442,5.952325,0
6.069616,186.65904,26138.780191,7.747547,345.700257,415.886955,12.06762,60.419921,3.669712,1
7.146463,194.648108,22255.037793,7.221114,332.584758,428.09282,14.034091,66.637513,4.013365,1
7.06294,194.445286,21960.750377,6.919034,331.746579,433.623272,14.333715,67.119109,3.999593,0
7.003402,198.253017,23061.764645,7.166442,327.548922,429.869554,14.278258,65.933736,3.962196,1
7.025987,195.982759,22712.040401,7.055174,334.613743,433.92659,14.604251,68.018464,4.061313,1
7.00295,197.517618,21432.625133,7.029863,331.482762,420.90693,14.394908,65.959479,3.994046,0
7.167832,197.663283,22353.401643,7.066639,333.448857,433.695271,14.488757,66.879635,3.918994,0
10.50476,143.767498,31320.245588,7.728505,402.953533,491.216033,12.003832,75.641708,4.681366,0
7.099908,196.862391,21913.877472,6.920118,333.714038,428.513702,14.150949,66.159532,3.955961,0
7.081792,193.983112,21545.439026,7.146317,333.088097,427.69444,14.238883,66.137751,3.989301,0
6.994279,194.261978,22780.864888,7.103865,335.597915,426.044821,14.377794,64.472552,3.937926,0
7.078335,198.311275,21956.212991,7.220677,330.231182,427.663351,14.33265,66.908986,3.973922,1
2.974429,147.148675,17326.202253,2.498597,393.168745,375.41147,12.798187,76.413069,2.779902,1
7.225894,196.868324,22029.291925,7.103592,335.601761,417.634485,14.303647,66.939864,4.017926,1
7.135441,194.721351,22153.010122,7.083112,330.397935,423.213522,14.499094,66.567486,4.020718,1
6.86764,197.064519,21838.088596,7.184655,331.145925,419.121356,14.665861,65.999922,3.954822,0
7.151937,193.833318,22644.991427,7.103585,336.065795,410.808618,14.196034,67.0364,3.97674,1
8.174186,244.249046,31114.820836,4.726912,285.332026,418.6196,14.873626,56.464157,4.709403,1
7.01581,197.581705,20902.017152,7.015386,333.092432,430.873549,14.292692,66.124562,3.975522,0
7.059229,195.300651,21768.759215,7.016634,333.841658,422.79295,14.428822,66.566811,3.902313,0
7.049844,195.961597,21906.687598,7.005425,333.281069,426.600906,14.016819,66.853148,4.032838,1
7.075689,197.139083,22314.088521,7.139806,333.79884,429.265347,14.002497,66.526713,4.018298,0
7.200422,197.679359,21297.51807,7.030782,335.337288,422.883823,14.308236,66.481932,3.973947,0
7.107901,196.433169,21860.575503,7.01543,334.710039,438.714344,14.283347,65.967416,3.920531,0
7.094771,196.528163,21979.443846,7.15876,330.243493,425.205949,14.319924,67.067066,3.949265,1
7.074028,193.309876,21533.331301,7.291853,334.499547,423.014966,14.440127,65.522795,4.06544,1
7.083723,192.449219,22484.04206,7.374515,334.002151,430.985494,14.39315,67.618221,4.024251,1
7.205799,193.84478,21981.417843,7.078914,335.147985,417.901464,14.391097,65.465942,3.908858,1
7.183213,194.617558,22278.982536,7.162176,333.321065,421.876939,14.45016,66.917541,4.035727,1
6.510856,223.860622,15147.171464,7.667533,389.391148,437.051364,12.085026,52.339075,4.225608,1
7.08628,195.443119,21466.678473,7.136138,333.946548,428.999959,14.173429,66.399705,3.93964,0
7.135392,195.548057,22157.491389,7.062657,333.314363,431.565121,14.690794,65.082393,3.949358,0
7.203584,194.553867,22307.504126,7.032338,333.511827,427.498447,14.35621,66.083822,3.951985,1
7.151206,192.888867,21925.418485,7.342494,327.210035,420.728863,14.3985,66.191215,3.983258,1
6.972871,194.72066,22144.056755,7.164672,330.948836,423.114089,14.604473,67.249146,3.922564,1
6.985844,193.924979,22380.585546,7.204409,335.489876,427.684973,14.266451,67.647272,3.988206,1
6.862936,220.147889,23580.65729,6.611543,285.192181,325.721747,13.472758,89.412935,3.806093,0
7.167756,196.317632,21555.39776,7.111056,336.350221,427.779684,14.500157,66.964996,3.997712,0
6.966118,196.021794,21351.26126,7.125619,333.729613,421.865662,14.430215,66.583774,3.996058,0
7.13094,194.097485,22359.087275,7.222002,333.541192,422.445424,14.41444,67.873972,3.92078,1
7.144202,195.182434,22032.059421,7.248523,334.775989,432.225668,14.304218,68.230446,3.971166,1
7.14157,193.879475,21006.437863,7.042547,335.694018,434.800337,14.611732,66.9089,3.973041,0
4.997771,280.082411,26849.194735,6.130757,374.232961,297.61154,15.571571,70.560275,3.404633,1
7.113898,195.225247,22678.942362,7.110185,334.743633,420.401019,14.204116,66.782908,3.955747,1
7.236264,195.911328,22171.097238,7.180056,334.401429,435.324949,14.264652,67.373755,4.029686,1
7.12006,194.753203,21006.15138,7.163042,333.263982,427.632367,14.499146,66.430614,3.970524,0
7.275743,196.97325,21227.858145,7.030105,337.20445,422.118903,14.397254,66.106806,3.974379,0
7.13323,195.757072,22075.587631,7.252955,327.49455,428.598008,14.249761,66.220783,3.937278,1
7.248008,197.712791,21783.714361,7.078983,333.825672,431.947574,14.114098,67.610478,4.016958,0
9.752703,269.640378,10194.325411,7.978044,298.082462,580.003534,12.562615,51.353052,3.42211,1
7.194186,191.95634,22032.556212,7.143602,325.869631,424.673783,14.134437,66.3043,3.969966,1
6.883004,198.535589,22314.870179,7.110388,336.432224,428.361212,14.512168,67.288636,3.949532,0
7.091185,199.732095,22350.380134,7.240035,334.821632,426.531906,14.270183,65.862674,4.004096,1
6.966835,158.043065,12256.678287,7.105619,371.517435,382.443863,14.40808,78.100735,2.957441,0
6.998332,194.802441,21545.340066,7.154618,333.842782,420.164275,14.464724,64.937687,3.870123,0
7.064778,194.605556,21482.887356,7.09541,332.567555,434.877199,14.10753,66.776597,3.929493,0
7.062584,195.066569,22027.90017,7.23556,331.456233,431.909599,14.615788,66.626199,4.023472,1
7.150434,198.009503,21576.515121,7.069124,332.605743,433.011153,14.106672,66.678596,4.003783,0
7.145154,196.780959,22810.539837,7.179228,327.774774,423.903886,14.170949,66.188068,3.964786,1
7.135984,194.578391,21853.088356,7.017572,333.201273,421.997405,14.345647,67.080207,3.9784,1
7.121092,197.331568,21328.814774,7.026306,332.605652,432.724147,14.533346,66.135157,4.020158,0
7.046559,195.556125,21389.946527,7.061172,333.87094,425.176402,14.29112,67.156083,3.946564,0
7.124932,196.181944,22458.595069,6.978631,332.181376,425.488852,13.963034,65.17477,3.945363,0
7.089165,196.34594,22274.09289,7.204461,332.985369,432.8085,14.190768,66.662699,4.016625,0
7.143487,195.511174,22518.209833,7.25994,328.54129,422.501952,14.46334,66.129784,3.98986,1
6.100245,160.60823,13886.809713,7.542775,366.688795,449.948287,18.72286,64.390521,2.174898,1
7.122741,197.543388,21543.214186,7.197169,330.490243,421.736788,14.139982,66.503312,3.965701,1
7.153755,194.84114,22247.34664,7.027841,334.089666,431.269018,14.499682,65.759821,3.980198,0
6.795469,187.78302,15300.838671,7.486598,316.956934,498.665928,19.600429,55.401113,5.163088,1
7.117978,196.13485,21227.477947,7.133657,333.450245,424.170248,14.381816,66.741228,3.952643,0
7.01335,199.742086,22520.832122,7.114292,334.649979,422.071536,14.202921,66.02746,3.937698,1
7.106824,193.477418,22116.71093,7.193755,331.071372,419.330479,14.202857,66.282506,3.969945,1
5.323816,232.36858,37625.75268,8.879823,380.576472,580.8977,12.293803,55.310019,2.880722,0
7.092429,194.36566,22716.329201,7.222685,329.972675,427.185732,14.219823,67.604665,4.04942,1
8.288765,211.452744,11234.041471,6.38551,360.843311,525.088611,15.098571,62.999999,3.580523,0
7.116143,196.936985,21556.849316,7.205674,333.643319,421.202768,14.671125,65.691524,3.999562,1
9.066628,203.384123,22710.458374,5.962837,321.585936,496.161452,18.367621,76.41651,4.055421,0
7.114241,195.374516,22106.261676,7.224492,332.339044,433.668586,14.093626,65.694026,3.935288,1
7.102049,192.784413,22116.738552,7.00589,331.295417,433.135668,14.347065,67.65389,3.93482,1
5.62482,215.822873,9028.760345,9.256098,274.292305,340.648393,10.680673,72.48745,4.355489,1
7.106687,195.571266,22118.530087,7.111331,330.554489,428.946335,14.000794,66.382704,4.050671,1
7.074929,192.769913,22589.596854,7.193905,335.233893,425.586177,14.270836,66.227173,3.937745,1
7.007749,193.484569,22683.382732,7.097489,333.688,432.371192,14.361765,66.30283,3.996744,0
9.564853,251.806665,17156.336705,6.25318,346.705209,410.32243,18.627126,82.955872,3.182805,0
11.491011,94.812545,37188.826022,9.263166,258.9306,439.893618,16.172755,41.558501,4.369264,1
7.074633,196.645838,21132.318727,7.181813,335.40557,427.945088,14.316684,67.271658,3.881085,0
7.129974,194.303561,22113.857163,7.105027,331.40388,430.542297,14.353894,66.693036,3.986257,1
7.10516,197.737167,21819.476439,7.240385,332.144173,421.041227,14.429234,66.669565,3.985003,1
7.126118,195.390108,21840.476707,7.108267,329.816014,422.048386,14.4982,66.25297,3.910115,0
7.357296,196.646783,22284.297304,7.287725,331.270351,422.979018,14.053622,66.766369,3.946547,1
7.043825,195.278103,21636.616907,7.145531,331.083928,426.9687,14.416694,65.390898,3.932752,0
7.189372,199.711617,21854.07108,7.27813,326.025411,426.284465,14.566524,66.621916,4.007746,1
6.912739,193.206291,21911.151054,7.113421,334.12448,428.846513,14.141414,66.5042,3.913356,0
5.830542,165.467025,30021.257079,8.433097,334.397777,494.154505,16.666613,69.580253,5.192117,0
7.134029,195.226332,20781.578818,7.040883,333.246303,424.296116,14.525216,66.190899,3.902283,0
7.08083,198.755397,20991.443565,7.093512,331.953951,423.120513,14.378365,66.317648,3.997237,0
6.825647,176.841063,12838.914373,5.792425,393.798648,447.289115,15.821346,104.230949,2.80448,0
7.065895,194.430497,21211.416724,7.011672,332.334097,432.390203,14.629783,66.799314,3.934115,0
7.01359,197.214312,22545.736266,7.173149,332.483885,427.179448,14.096884,67.730559,4.049121,1
4.814136,205.214041,17650.405049,8.12108,350.487939,414.030709,10.999416,47.402666,5.190852,0
6.95701,197.126501,21982.123833,7.130923,338.059778,426.731771,14.614266,65.794824,3.971949,0
5.654119,171.751551,16431.204897,7.283454,387.904632,419.097306,11.814852,86.308236,3.466264,1
7.053218,195.268699,21400.862718,7.181801,330.303772,422.717303,14.085137,66.706527,3.937474,1
7.200751,196.854334,22177.818286,7.244811,332.371746,422.73886,14.422958,67.200833,4.003713,1
7.123968,196.786178,22785.127123,7.304746,334.461909,420.00886,14.425597,66.388116,4.026434,1
7.176159,196.992915,22201.457505,6.969985,337.806166,422.355522,14.524861,66.235871,3.948446,0
6.10676,211.454489,39430.307823,8.316897,348.776719,389.59144,12.896953,85.358049,3.924967,0
7.065788,196.153108,22747.699408,7.168776,331.098144,419.221961,14.384098,66.794797,3.993807,1
7.044555,196.993136,22542.425205,7.298281,332.523118,422.383464,14.110069,65.24095,3.989268,1
7.020368,198.140127,22900.082453,7.133065,333.247775,433.455414,14.103767,66.422342,4.024459,1
3.637171,238.943744,10102.48972,7.532192,337.534425,509.150323,13.81845,49.652834,5.446566,1
6.34702,97.280909,19743.148416,3.402682,305.431236,502.919013,15.094091,86.554168,4.526351,1
7.20339,194.814677,21883.37982,7.064767,332.810433,423.837453,14.259921,66.749682,4.001864,0
7.109047,194.636802,22538.640058,7.261639,333.296053,424.018575,14.592732,65.902766,4.020951,1
7.099309,198.331687,21667.747286,7.155834,333.906237,429.142571,14.088672,66.473272,3.962541,0
7.115352,198.638757,22553.114315,7.166124,331.696451,427.601125,14.587559,66.896463,3.965919,1
7.098446,195.175527,21501.296075,7.097543,334.46609,424.802304,14.213018,67.087488,4.053239,1
6.994714,196.435649,21756.5604,7.109693,332.304754,429.715518,14.173824,66.56685,3.982242,0
7.105019,199.723144,20976.162837,7.093832,339.990785,428.222416,14.604714,68.26776,3.97182,0
7.035994,195.756101,21222.957613,7.10874,334.149827,428.849169,14.439944,65.083093,3.912706,0
7.025518,196.87079,22142.116282,7.127605,336.134282,427.89746,14.189628,64.827599,3.942236,0
7.101052,194.354624,22514.73725,7.221515,331.88408,427.416869,14.28662,66.814741,3.95854,1
6.492403,234.914512,18607.213193,8.620697,302.131306,442.104208,14.116824,65.636759,4.383395,0
7.049055,195.011864,23163.33291,7.265545,334.931969,422.603614,14.39854,64.56694,4.03916,1
6.951358,196.255144,21736.097991,6.98742,332.667963,423.475301,14.534506,65.143963,3.903886,0
6.490923,189.031588,30453.623186,6.060119,297.512799,476.916726,14.97397,47.012889,4.372333,0
7.174334,196.03217,21809.454321,7.231747,330.931698,416.760463,14.197557,67.619048,3.984195,1
7.054078,197.255542,21969.427643,7.144729,336.612483,425.112046,14.32134,66.312798,3.91426,0
7.086502,197.739754,21710.337614,7.127484,334.232728,428.422776,14.33765,66.936494,3.955018,0
7.131514,196.766628,22170.831816,6.873284,330.824422,425.225154,14.555055,67.032403,3.942705,0
7.104253,193.102403,22028.274209,7.264821,334.965383,418.274948,14.313054,65.341179,3.949178,1
7.057899,196.867891,21494.865347,7.201527,332.363188,426.895213,14.51622,67.226753,3.955676,0
6.427512,178.326555,25993.711406,7.294554,329.695223,566.754724,11.97427,60.736723,6.032995,0
6.997251,196.384659,21176.57805,6.975181,332.931947,424.090597,14.420514,66.988878,3.936622,0
7.986018,180.795558,24712.993432,5.687865,287.570884,434.954519,8.642494,84.581963,3.153005,1
7.111277,195.12005,21101.259748,7.188577,336.167088,422.064457,14.314613,66.557863,3.964738,0
7.024302,197.279918,21787.667327,6.996221,336.84094,427.477253,14.290803,66.178825,3.983261,0
6.988046,194.796443,21992.808424,7.107313,331.031501,425.548736,14.253679,67.517736,3.979838,1
9.434006,158.38784,20474.820824,5.857333,285.395112,476.842011,14.38835,73.164778,4.201054,1
7.054347,195.278463,21752.312552,7.003437,333.322234,426.512099,14.390681,67.466244,3.959312,0
7.157926,194.306739,21604.805174,7.123822,332.809925,428.820846,14.388802,66.461867,3.963334,1
6.985304,219.58644,16470.952192,6.445513,339.053992,492.903021,15.804449,70.600683,3.081799,1
7.100368,198.00998,22555.190798,7.132299,330.211174,419.710394,14.247091,65.946917,3.999443,1
5.866251,146.86568,19679.06267,4.86848,320.012372,414.427017,15.522773,84.403684,4.281313,0
7.188062,198.374256,22749.494737,7.267688,329.745549,418.881085,14.483459,66.938101,3.99027,1
10.223862,248.071735,28749.716544,7.513408,393.663396,283.651634,13.789695,84.603556,2.672989,0
7.067303,197.33416,21687.132684,7.06615,331.34836,428.647294,14.507455,66.635922,3.924295,0
7.145147,194.235959,22481.331799,7.358095,333.679909,428.406829,14.229774,66.319012,3.941138,1
7.057539,200.488791,22661.023186,7.2521,332.865094,433.73971,14.394711,66.071327,3.944358,1
7.14626,195.098701,22117.183358,7.160861,333.020818,426.450957,14.437272,66.124496,4.018432,1
7.087395,194.768348,21625.555121,7.151113,335.833809,424.798759,14.239159,67.504327,3.960958,0
7.144268,194.058343,22526.681784,7.167216,332.565939,436.663798,14.209078,65.962015,4.026346,1
7.076579,196.4759,22407.572476,7.282644,332.635493,422.085786,14.193805,65.436686,4.003607,1
7.120187,192.974387,22539.599416,7.180725,333.695428,427.386468,14.648442,66.025391,3.970807,1
7.069227,198.277404,22500.166043,7.103269,333.671546,425.111232,14.254303,68.518226,4.036009,1
7.104746,199.143365,21704.480927,7.110006,331.714435,432.526526,14.290014,65.360077,3.985981,0
7.141334,196.447158,22188.907253,7.171143,332.312207,425.680737,14.138927,66.962883,4.006331,1
7.09421,197.028681,22188.811251,7.175862,333.141705,423.739115,14.43786,66.609034,3.958674,1
7.147714,197.228194,21776.465421,7.288289,334.737347,428.903069,14.083993,67.714813,3.943478,1
6.984406,181.707343,18194.54531,8.263804,371.146458,201.619737,11.267398,68.192658,3.40621,1
7.080369,195.356701,22828.549207,7.326448,334.438551,427.435378,14.320437,65.47005,3.98177,1
7.134927,194.517805,20716.164065,6.99469,333.623054,433.765713,14.931833,65.9217,3.959519,0
7.012522,198.460396,22162.988272,7.089426,332.739245,428.50505,14.327374,66.871766,3.983275,1
7.147403,196.345954,21960.383518,7.275873,331.622081,429.64394,14.161816,67.559007,3.988733,1
6.978845,194.723559,21860.497845,7.135953,332.729667,433.914736,14.018789,67.740025,3.995176,0
7.038786,195.307089,22197.626755,7.170797,336.142801,421.521464,14.181077,66.703594,3.918977,0
7.951451,185.421724,6108.795734,7.117859,344.795681,283.87728,18.904399,85.799759,3.886882,1
7.392084,173.528778,20185.676229,9.120931,384.117247,310.074851,23.317699,81.129543,3.778458,0
7.053264,195.104798,21575.441841,7.088467,332.585325,430.071579,14.450715,65.612111,3.96429,0
7.166935,196.657969,22693.994341,7.15967,330.032777,423.242667,14.43808,68.324711,3.960956,1
7.042946,195.788981,21871.772588,7.047416,334.439846,420.609774,14.486408,66.185394,3.92254,0
6.961808,196.020084,22200.72057,7.013158,334.325685,424.891926,14.180387,67.379338,3.971641,0
5.365192,238.291212,16262.939246,7.507931,255.544678,393.533879,12.465043,27.095703,3.180798,0
7.143315,194.492132,21903.371524,7.068274,333.715952,427.931018,14.319702,66.790648,3.969899,0
7.118537,193.445061,21919.131065,7.155988,333.224033,425.257309,14.331808,66.556539,3.986384,1
7.21722,194.718432,22553.159589,7.102966,333.595307,429.449371,14.296019,66.341832,4.007733,1
7.133626,194.043794,22323.833287,7.036448,335.664995,428.340547,14.292334,64.514947,3.955782,1
7.045168,195.736618,22195.382533,7.080238,334.225883,429.103767,14.357918,65.926289,3.982984,0
7.815122,190.313904,20229.10815,9.186893,335.638726,379.222873,14.979348,73.425428,3.096163,0
6.998086,197.779444,21475.807292,7.101399,331.216501,425.177274,14.389166,65.342638,3.986821,0
7.851926,235.338312,14763.580113,7.741975,338.603322,505.665639,11.86337,49.598381,5.204044,1
9.323584,212.71067,15751.1753,5.50107,296.848512,399.773704,10.622265,74.554285,3.00665,0
7.086886,197.843932,22508.506992,7.241267,332.232891,428.117742,14.445814,66.308843,4.002882,1
7.05308,195.449359,20804.723978,7.060919,332.115751,426.344533,14.330204,67.453171,3.944514,0
7.049118,197.000384,21918.808118,7.162211,333.886372,427.691507,14.323886,66.171147,3.975962,0
6.973522,196.148237,21643.854181,6.993013,334.842829,433.103473,14.524952,64.630939,3.923767,0
7.03825,193.912936,22188.519856,7.081629,326.056436,420.698375,14.307925,66.768263,4.010919,1
7.226593,207.832229,22097.413223,5.862717,354.708382,353.654046,10.401056,66.86414,4.337117,1
7.119451,195.473826,21902.834752,7.023995,334.734781,423.54083,14.33542,66.604978,3.996136,1
7.313114,197.044936,22028.360037,7.202948,329.221073,429.288082,14.318907,65.72996,3.954484,1
6.867247,194.554897,21619.33183,7.131312,331.483758,425.592288,14.452817,66.227576,3.939506,0
7.097832,196.571353,22422.181245,7.170873,334.055552,426.627168,14.388101,65.046984,3.996835,1
7.00942,199.920096,21621.99702,6.934581,330.20243,425.758567,14.478555,68.205703,3.961528,0
7.191276,193.169182,22703.991753,7.276274,333.83982,428.788084,14.225956,66.795884,3.982596,1
7.119949,198.508183,21781.848525,7.130578,331.290889,432.596699,14.251711,66.820034,3.97582,0
7.12159,194.723736,21293.343773,6.901275,336.778726,427.575147,14.602554,65.66718,3.987803,0
7.202421,194.979941,21038.451541,7.21273,336.393782,424.69383,14.085084,65.150902,3.946412,0
7.128532,195.83266,23217.347405,7.172382,335.271753,422.010457,14.407937,66.942444,3.921244,1
7.103446,196.69636,22403.893786,7.083168,334.174496,423.864028,14.138182,68.376603,3.990842,1
7.008632,198.594043,21931.295946,7.102627,333.691036,423.191886,14.350474,64.633054,3.969067,0
5.685216,154.570002,17628.043059,6.664444,390.094731,324.427772,17.352586,67.4073,4.066157,1
7.13251,194.860322,21590.908776,7.067235,332.585722,429.124818,14.185087,65.507998,3.959929,0
7.076314,201.347863,22397.525944,7.072979,333.716629,435.336489,14.407094,67.537891,4.095945,1
7.17838,196.348087,21635.148895,7.097609,335.58001,430.050209,14.651687,66.093831,3.952658,0
7.064841,193.775001,21843.503238,7.103018,334.197366,426.995713,14.089723,67.239611,3.89669,0
6.739158,156.482759,30950.6811,6.54309,363.179624,425.288837,11.653458,70.367049,5.214484,0
6.938331,193.644172,21528.698942,7.114006,333.478033,427.115056,14.473248,66.699791,3.967817,0
7.114278,197.028556,22232.129219,7.117125,332.520343,424.031168,14.224527,66.769986,3.900141,1
7.100187,194.418927,22330.080735,7.24375,327.888624,429.605215,14.297918,66.483204,3.965601,1
7.074241,193.969834,22113.728206,7.129463,329.366313,424.697731,14.375685,68.351969,4.050681,1
9.092223,181.101509,17978.986339,6.5466,310.135738,398.410813,11.558279,31.997993,4.075075,0
7.214122,194.537773,23144.603782,7.273212,332.156998,423.947826,14.513031,65.641761,3.926539,1
7.098799,196.190509,21923.477746,7.128209,332.693667,421.217176,14.366273,66.395444,4.047417,1
5.555353,154.300684,20503.430055,9.644997,313.470297,355.206968,18.46869,75.140362,4.536146,0
7.090829,194.468614,23043.089826,7.211102,332.648494,421.453941,14.167048,67.31779,3.975903,1
7.073613,198.273907,21346.653545,7.065406,328.688059,429.214435,14.321744,66.067066,3.941386,0
7.202409,196.057586,22620.937984,7.066935,334.954064,430.495791,14.273663,66.677903,3.994592,1
7.581945,193.286463,21675.682866,9.821499,381.930744,414.810985,16.109169,92.609084,4.833346,1
7.138675,194.50153,21649.039476,7.265357,333.215203,421.082086,14.358632,65.561518,3.957135,1
7.080619,197.94692,22493.273711,6.960813,326.898625,424.679165,14.425492,66.344889,3.976267,1
7.123006,197.188981,22073.797359,7.169187,334.275731,427.702642,14.158907,68.39984,3.927393,1
7.03404,198.183184,22770.872449,7.250429,329.858027,414.413502,14.306305,67.013538,3.990894,1
7.081727,194.504697,22139.724694,7.053862,333.851005,425.89279,14.317478,67.413204,3.966659,0
7.183187,197.648727,21756.285533,7.16272,333.20561,427.524822,14.214986,67.361401,3.956483,0
7.120918,198.522027,22131.569324,7.095177,331.689512,424.089583,14.108157,67.000713,3.947543,0
7.114623,196.211385,21245.596028,7.153983,333.175877,429.140078,14.511314,65.865487,3.94289,0
7.039233,193.047142,21153.952868,7.041255,333.258504,431.071127,14.446456,66.656661,3.944322,0
7.082211,195.39803,21871.199464,7.056,328.788391,427.155846,14.326251,66.552913,4.001603,1
7.242336,197.240598,22535.93239,7.086517,336.029253,415.175171,14.329797,66.157978,3.937176,1
7.013147,198.449094,22153.614009,7.097292,335.538588,432.857889,14.277464,66.233624,3.928569,0
7.093394,195.175895,21771.640406,7.103359,335.333176,424.552496,14.342459,66.115856,3.932156,1
7.166492,197.358474,22522.074709,7.154628,331.891925,425.561674,14.245161,65.822611,4.025629,1
7.069797,198.147225,22407.575399,7.250359,333.301227,429.521661,14.503918,67.704981,4.006381,1
7.175138,194.601865,22986.683754,7.274236,332.909618,427.751592,14.482552,67.516674,4.03029,1
2.128531,192.696422,24905.284521,7.75777,383.519892,473.550065,14.286493,56.34783,3.842109,0
7.203851,196.739542,22313.236921,7.072337,336.056997,428.752551,14.398548,66.977005,4.01275,1
7.113999,194.645626,22031.938966,7.287754,334.057981,430.280163,14.570346,67.225555,3.963189,1
7.423586,180.453871,34451.984214,7.930651,303.790134,429.859999,7.665923,66.700476,3.365397,1
7.075555,198.341453,22325.858822,7.07105,330.760944,428.371753,14.313248,67.010907,4.006691,1
7.191587,193.798209,21313.235876,7.147825,335.375468,429.491689,14.265244,65.552385,3.955362,0
6.83606,205.667718,18321.327502,6.712854,297.837188,494.484249,13.808923,70.714225,4.952508,0
6.977128,195.645393,22190.758128,7.122002,335.480537,423.28851,14.573059,66.215486,3.887751,0
7.131054,194.675348,22233.893365,7.129457,332.302184,422.075884,14.372685,64.604163,3.924025,1
7.077472,196.498831,21965.501374,7.282808,331.767442,426.898046,14.266578,65.979524,4.005638,1
7.294364,191.77362,41569.951985,5.311112,321.320551,342.501387,13.792535,54.463525,3.336582,0
6.905515,192.865205,21671.174269,7.05088,337.295314,430.244687,14.623248,66.504348,3.938379,0
7.202942,192.682882,22922.036455,7.110699,336.001611,430.008116,14.365881,66.653149,4.026006,1
7.137102,195.845261,21718.691893,7.240045,334.317317,419.896371,14.227507,65.826907,3.939964,1
7.044571,196.468164,22779.029135,7.175155,336.172148,423.745814,14.317071,66.296692,4.040572,1
7.058715,201.02414,21484.668267,7.366491,331.96375,420.808002,14.217789,67.495026,3.971133,1
8.506979,197.745141,20098.199518,6.456556,344.127253,555.919796,9.028359,78.933096,3.881794,0
7.076697,195.555702,22666.377092,7.101818,331.602257,420.6428,14.371549,65.10577,3.956305,1
7.098249,194.976126,21642.157633,6.934999,333.994716,421.796826,14.371943,66.833693,3.878072,0
7.241148,196.614458,22322.719924,7.213477,329.492717,426.477384,14.10532,64.677878,3.968313,1
7.169795,196.65215,22384.519447,7.144436,332.836953,418.921698,14.275841,66.722298,4.020692,1
7.109477,196.105242,21670.654423,7.150358,339.098284,423.881388,14.531517,66.101798,3.90331,0
7.20404,194.688024,23117.022528,7.351212,332.203766,424.031706,14.209874,65.250306,3.985765,1
7.0719,195.907665,20703.960549,7.108354,333.488491,433.206826,14.346329,67.146947,3.981425,0
7.05465,197.671786,22582.390206,7.129477,331.915554,425.290135,13.956109,66.191604,4.034746,1
7.010995,193.353995,21798.886257,7.264475,329.503277,427.706391,14.264058,66.855771,3.980407,1
7.246157,195.531154,22019.865625,7.110503,334.076366,418.71604,14.224001,67.111218,4.004233,1
7.220751,199.154076,23005.34747,7.176333,332.563154,425.979868,14.132718,66.490279,3.969979,1
7.124174,195.163334,21583.37032,7.001845,331.920727,429.016531,14.423756,66.367076,3.984852,0
7.111763,195.699311,21882.71552,7.119312,332.406798,422.484076,14.200495,66.87116,3.973773,1
7.080838,194.275729,22629.641616,7.165241,331.886008,426.260441,14.297567,65.769617,4.037131,1
7.063958,193.979441,21335.760026,7.172299,332.36018,426.344914,14.154324,66.109686,3.975142,0
5.574117,193.158076,17546.403256,9.219973,366.197418,538.532518,13.951332,67.142033,5.152528,0
7.204408,197.170449,20639.177064,6.972768,332.269578,429.043028,14.061352,66.891322,3.93964,0
7.846058,224.058877,23264.109968,5.922367,300.40262,387.971336,13.406737,43.075186,2.487969,0
6.957882,195.818195,21067.401805,7.090928,332.353465,428.315692,14.157541,65.988423,3.941081,0
7.051731,193.289586,21988.742864,7.177875,335.309389,422.640483,14.224047,66.173629,3.962194,1
7.130605,196.097247,22116.146972,7.056628,335.254961,426.676872,14.323697,65.442275,3.969989,0
7.112699,195.853576,21065.097077,7.109328,336.155337,429.119491,14.239314,66.624394,3.952969,0
7.119161,195.476591,22255.043046,7.240986,332.365304,424.975096,14.533715,66.837291,3.976517,1
6.997137,195.895863,22872.504143,7.300051,335.307822,418.850476,14.229408,65.278117,4.000245,1
7.274893,198.904656,21373.019975,7.001228,336.319965,420.698184,14.754741,67.10922,3.898839,0
7.247219,196.072149,21901.606537,7.116429,335.308573,425.290297,14.48614,66.179767,3.996559,0
7.138818,197.531868,22659.448148,7.192596,329.188054,428.309844,14.319663,67.00635,3.991316,1
7.076809,195.768843,21463.1891,7.0703,332.16793,426.180344,14.422097,66.073285,4.011962,0
7.014856,194.111735,23479.516712,7.15368,328.625382,426.277331,14.227307,66.976053,4.013267,1
7.142859,194.837814,22319.366811,7.133759,326.51464,429.40858,14.058517,65.692736,4.043878,1
7.749774,229.489767,21995.068068,7.748921,320.440664,398.544763,18.202916,41.064247,4.317186,1
7.130375,196.734097,21852.016748,7.156337,333.871288,433.930449,14.469431,66.182298,3.929887,0
7.165006,191.899599,22398.85825,7.148207,332.98664,416.282457,14.470309,67.666127,4.002923,1
7.192599,198.024523,22988.961641,7.081939,332.532439,420.872422,14.031009,66.69951,4.061138,1
7.252366,196.318712,23150.920788,7.17807,328.80037,425.653198,14.228661,66.182254,4.019261,1
7.0597,194.570469,22351.84747,7.114526,331.637266,425.023618,14.25807,66.912505,3.924133,1
7.028769,194.286606,21236.628843,7.164298,335.049603,432.151026,14.385632,65.300065,4.023705,0
6.865125,216.744458,13529.038758,5.618492,402.313427,553.616733,15.692771,86.378082,3.955154,0
6.208016,153.221106,17358.796365,8.214939,328.282029,481.195673,14.274092,62.718199,4.334616,0
7.043509,194.736554,22013.017793,7.041822,333.00488,424.145249,14.310456,66.188853,4.018471,1
7.131076,196.320909,22759.074646,7.109209,335.469008,429.989197,14.214176,65.487114,3.981722,0
7.042851,194.626029,21515.719166,7.173835,330.88702,419.433262,14.15928,67.637835,3.953329,0
7.157308,197.927069,21317.579197,7.105672,331.150856,428.902294,14.540789,66.175747,3.918187,0
7.070404,193.954952,23035.220042,7.075602,335.712757,421.331925,14.228918,66.139228,3.996499,1
7.144531,196.731874,21278.923756,7.120979,332.840164,427.153556,14.470626,66.541443,3.918842,0
7.104355,195.526702,21274.499692,7.178147,333.065896,427.54336,14.192486,65.47944,4.002016,0
6.993776,195.736144,21583.908579,7.010789,333.081755,430.434451,14.450955,66.105007,3.973505,0
6.974625,196.658943,21277.154895,7.032069,332.647186,427.013706,14.164356,66.950449,3.930612,0
7.10971,194.209115,22261.575283,7.102959,332.837989,425.399938,14.113067,67.798718,3.947914,1
7.038296,198.309789,21474.461552,7.027838,334.778192,426.890327,14.125395,65.840697,3.93968,0
7.182851,199.163637,22519.605115,7.206374,331.374735,434.398348,14.494155,67.958496,3.956947,1
7.108412,196.360265,22517.78944,7.241043,331.476827,417.71014,14.018237,66.552923,3.936223,1
7.136771,195.953215,22985.132061,7.154516,333.231687,422.657387,14.12442,67.418495,3.979256,1
7.032755,196.269485,22070.21991,6.993465,331.036263,424.457854,14.671533,66.573859,3.984538,0
7.034553,198.748832,21711.727387,7.101873,332.961653,427.155427,14.551137,65.722225,4.017714,0
7.141292,193.908621,22726.747571,7.069293,332.961477,426.328681,14.186039,65.573097,3.975331,0
7.143995,195.851296,21965.678454,7.262986,332.430274,420.518361,14.212328,66.464686,3.980325,1
6.995344,197.199585,22019.109415,7.114109,333.850573,424.529006,14.450046,66.591716,3.959537,0
7.765636,173.185569,13736.342036,6.984102,359.8137,355.998026,11.515123,39.550476,3.21445,0
7.052447,197.37912,21862.062592,7.077698,333.287384,426.178126,14.515773,66.674565,3.949379,0
7.105886,197.201753,22821.228538,7.250742,333.364698,424.381434,14.331641,67.897507,4.040002,1
7.120947,196.430824,22063.459658,7.123681,326.898932,429.065845,14.355391,66.66203,3.887331,1
7.238568,195.81551,20772.526015,7.131464,331.930465,422.666182,14.206787,66.331058,3.935177,0
6.028101,262.808478,17150.10055,9.37839,380.30135,514.545672,20.637599,76.529077,4.080786,1
4.933106,162.184382,27771.080134,7.757702,317.935411,493.304069,14.261743,77.142104,1.45,0
7.161592,195.527247,23136.39282,7.187721,332.49103,422.249924,14.130426,67.016443,3.951351,1
7.22254,193.945566,22936.340275,7.146796,331.84847,422.926783,14.118264,67.074664,3.9404,1
7.146017,196.045658,22322.298967,7.094686,335.24022,425.721438,14.433495,65.598442,3.969607,0
6.985873,196.516623,21309.707539,7.078891,332.341671,422.69671,14.294704,66.648053,3.899009,0
6.800119,242.008082,39143.403329,9.501695,187.170714,376.456593,11.432466,73.777275,3.85494,1
7.112155,195.35735,22796.556224,7.043104,334.895422,423.650151,14.175585,66.550733,3.98862,1
7.183044,194.721921,22006.614135,7.208952,331.515645,421.111887,14.258069,66.044418,4.018423,1
6.990938,195.291843,21388.26732,7.174777,335.867026,429.914184,14.367374,67.513231,4.003953,0
7.028626,193.36463,21320.284572,7.074765,334.871536,429.806438,14.226233,66.614043,3.917888,0
7.189484,197.105306,21602.166832,7.079214,334.262031,430.918036,14.178601,65.965313,3.931091,0
7.03115,199.610902,22692.234802,7.036241,332.887761,418.721418,14.443821,68.257077,3.923697,1
6.949484,193.153191,22144.144303,7.029204,333.773305,426.048476,14.600693,66.485516,4.068954,1
7.027316,198.297931,21306.876163,7.081844,334.35923,429.555872,14.565241,65.459969,3.962567,0
7.036377,197.338207,21347.659173,7.120909,334.448841,428.631034,14.460959,66.666667,3.975249,0
7.191261,196.008803,21633.575175,7.146584,332.718569,428.664617,14.369434,65.210168,4.017113,0
7.086498,194.527898,22460.600048,7.10482,326.686105,430.0695,14.182633,66.012997,3.92754,1
6.98323,195.836334,21608.057828,7.242059,329.780588,420.9146,14.262589,66.168686,4.011634,1
7.108828,196.373957,21095.208825,7.021376,333.181486,422.681604,14.350874,64.799029,3.996568,0
7.137429,210.50275,17506.608803,7.304928,301.642004,304.239481,13.076007,64.230942,2.964181,1
7.61812,202.715501,44539.738323,5.816216,338.07007,459.07842,13.351652,73.601918,3.7697,1
7.057215,197.232675,21275.233682,7.137223,335.112089,424.265104,14.348965,66.541774,3.959693,0
7.141823,197.129383,22363.902447,7.068251,336.680232,428.685556,14.41081,66.608768,3.953686,1
7.191188,197.813383,22496.663912,7.197663,330.123336,426.767976,14.256436,66.887572,3.980579,1
7.078853,198.178529,22761.50775,7.365524,330.417911,423.863956,14.365921,66.663433,3.953068,1
7.164372,198.764983,21373.046574,7.106161,333.532941,426.941463,14.443329,65.498145,3.934809,0
7.291888,127.544297,27784.048484,9.754476,247.335412,439.649329,17.285042,59.55633,5.328713,1
7.083342,196.831582,21591.529113,7.056396,334.640218,429.583152,14.529,67.352838,3.982976,0
7.195805,196.343878,23140.091161,7.055477,333.22328,425.556844,14.188591,67.061417,4.005199,1
7.000716,195.058155,21540.811695,7.032628,332.132995,425.505904,14.558546,65.550079,3.913345,0
11.898078,228.132673,8296.550611,9.899637,346.64975,500.16921,15.486862,63.52946,3.024968,1
7.071583,197.12687,21629.108784,7.201623,328.086401,426.796168,14.025077,67.32639,4.016173,1
7.01823,193.537942,21334.956983,7.181602,331.225171,428.259816,14.220629,65.255977,3.916572,0
7.003843,197.023564,20812.953792,7.16572,336.324579,421.74259,14.449205,65.795387,3.918071,0
7.069035,199.376046,22176.204968,7.201521,334.167668,433.242371,14.266329,67.033852,3.953993,1
7.157438,196.276846,23044.786139,7.404235,330.972083,424.115621,14.227883,66.417423,3.979507,1
7.100302,192.4367,22351.734627,7.099161,330.384058,429.517695,14.191934,67.338218,4.071982,1
8.257597,208.404166,20109.02627,6.230582,235.770982,528.068658,14.410778,74.984937,4.528575,1
7.273293,192.341841,21537.746595,7.034871,336.133798,421.622904,14.289327,65.67851,3.931753,0
7.198531,197.591727,22673.771492,7.094482,335.460878,422.430281,14.432914,66.430041,3.981504,1
7.165807,195.426081,20776.924096,7.06452,332.34017,423.492584,14.026771,67.174529,3.963645,1
7.071059,191.10184,22802.585827,7.335333,325.284276,417.601525,14.330167,66.464429,3.920994,1
9.23944,212.569076,14829.624212,7.17292,324.128915,575.421968,16.58112,66.88527,3.471971,1
7.05307,195.207054,21428.717363,7.218977,335.640298,428.655281,14.579377,66.456774,3.959639,0
7.193254,195.618052,22604.019072,7.17213,332.362968,424.409224,14.328294,67.990151,4.071329,1
7.26693,196.027373,23015.154505,7.181885,332.42829,422.596607,14.275347,67.990992,4.074488,1
7.178809,195.728438,22417.128174,7.11243,329.771761,419.343322,14.404321,66.24772,4.010519,1
7.05428,194.572175,23444.065822,7.267236,338.448515,432.510821,14.418142,67.254487,4.016859,1
5.913755,175.326062,12044.624691,8.368785,347.880372,380.967166,12.530827,65.194053,4.023776,1
7.245854,193.366829,22620.59915,7.224537,328.226383,431.905459,14.554259,66.965366,3.950166,1
7.154261,196.78365,21078.164222,7.098719,332.593387,426.367227,14.483261,65.629816,4.051935,1
7.105065,197.368216,21577.329971,7.016506,334.620325,429.542062,14.587101,65.499976,3.98205,0
7.026332,196.168394,21513.313627,7.147448,331.75139,427.235214,14.483817,65.907563,3.918475,0
7.129425,178.372352,25840.578888,7.487823,312.982727,323.298915,16.406156,69.157609,3.418611,1
7.113521,196.695117,22076.56633,7.041748,330.373911,427.076403,14.529614,65.786411,3.944792,0
7.190052,193.326814,22560.423308,7.141352,335.157239,420.112454,14.559249,65.571996,3.981322,1
7.030603,196.796653,22388.261644,7.137257,330.787025,421.941554,14.626585,66.109804,3.932922,0
7.076419,198.419723,22536.855703,7.103921,331.558549,428.770852,14.563032,66.674276,4.044408,1
6.961268,195.58858,21464.481752,7.126382,334.396597,418.352819,14.461051,66.390353,3.920003,0
5.814564,184.541709,29382.335258,6.051233,348.352374,405.621375,18.748201,82.186737,4.131912,0
7.076614,197.566698,22674.812053,7.175715,331.813048,425.602575,14.565567,66.028713,4.020289,1
6.977424,194.616075,21536.469161,7.197685,334.421526,424.698925,14.208695,66.078233,3.992845,0
7.027521,198.737439,22916.55181,7.17782,331.733088,425.63895,14.114627,65.072433,3.965067,1
7.142947,193.915397,22230.805851,7.249453,332.291405,421.595501,14.311852,65.400165,4.011652,1
4.560917,165.773119,22939.144377,7.988232,352.793528,323.783277,13.56415,79.316585,4.123622,0
5.941943,249.163567,14778.032875,6.390679,335.796082,517.546817,15.931879,66.551419,4.302179,1
6.885901,198.945616,22492.449688,6.970529,331.960406,424.541205,14.360608,65.613356,3.947501,0
7.156376,196.70631,21479.023972,7.096781,333.756049,427.630383,14.496749,66.316899,4.071132,0
6.969659,194.394116,22622.417553,7.159793,334.90733,426.047867,14.367355,65.525104,3.949784,0
8.238879,198.213405,11451.312217,5.30899,309.329423,401.063764,13.243329,81.19771,2.784713,0
7.22458,193.060681,21011.797823,7.067383,335.712687,424.099725,14.724689,67.535773,3.962472,0
8.163074,162.231846,10494.573369,8.087496,423.952028,487.318346,16.011608,69.976719,4.128193,0
7.223991,195.599886,22635.786896,7.163096,333.161027,427.1992,14.167209,65.952021,4.024605,1
7.13195,196.532692,21757.03594,7.113923,332.554071,434.612116,14.283911,65.979846,3.972903,0
7.166411,194.949154,21927.582581,7.170438,328.209915,428.747797,14.321781,65.714848,4.021448,1
7.301563,177.662895,23441.267143,9.107017,326.29063,478.467047,14.003396,55.183347,2.774961,0
7.078659,232.581848,26177.789508,3.914353,334.161127,380.459918,9.633631,41.95194,3.69664,0
7.080694,197.082968,21172.538398,7.101763,333.89735,430.847955,14.352173,66.273526,3.977355,0
7.17776,194.726558,22257.679713,7.199237,332.894803,434.072942,14.365497,66.703844,3.994172,1
6.73985,197.374482,34702.417848,5.869685,261.068006,390.046573,17.757917,91.384605,4.37963,0
7.466558,212.81603,16679.673622,5.436264,366.601344,358.909589,6.13421,46.655429,4.991675,1
7.102724,195.693453,22834.546315,7.165731,335.956826,423.763277,13.884097,65.926407,4.069974,1
7.218985,197.443578,22094.901273,7.130964,330.340667,417.974998,14.485486,66.33959,3.96503,1
6.539546,215.445204,28979.767601,7.015365,312.335472,426.083479,17.950001,54.983878,4.076403,1
7.155261,194.94987,22099.783487,7.165523,331.905863,430.969505,14.16278,67.305598,4.017296,1
7.02055,195.875696,21739.730309,7.107426,330.978381,419.098892,14.653147,66.324713,3.971402,1
7.1659,195.145784,22211.995762,7.192781,328.631978,431.510912,14.524444,67.463257,3.95363,1
7.201181,195.22215,22578.2244,7.149624,328.840658,418.531007,14.231025,66.418761,3.87832,1
5.897391,172.034385,30575.357138,8.649615,393.554892,426.505834,16.311658,74.543981,2.961602,0
7.027248,196.556344,21934.832921,7.136364,332.903056,423.556788,14.32364,65.609485,3.988255,0
8.693104,184.772809,13283.778053,6.521815,348.554792,560.96591,13.978348,71.733845,2.898223,0
7.112463,196.14045,21047.746309,7.055112,333.076737,428.093326,14.328266,65.905504,3.944534,0
5.803497,193.200991,19451.767603,4.146601,255.976746,365.477618,14.920616,8.577013,2.181714,1
7.07662,194.52457,21381.039884,6.960491,334.597663,423.111741,14.343582,66.155738,4.005061,0
7.183082,197.51267,21695.810417,7.069719,331.363392,433.391961,14.196761,68.541889,3.995229,1
7.507575,172.504021,18328.695899,6.907736,351.418634,377.075133,10.678255,68.852196,3.703001,0
7.152416,198.1102,21416.329439,6.94587,331.952833,432.18841,14.470154,68.004052,3.965905,0
7.119824,194.862688,22516.399885,7.065714,330.144305,425.76766,14.384658,66.524095,4.040772,1
7.074997,198.315623,23058.852296,7.284306,330.210574,422.019851,14.538825,66.346936,4.002151,1
7.055682,195.88975,21171.865344,6.996828,336.536993,429.49414,14.570116,64.71631,3.981634,0
7.164893,197.230832,22786.972508,7.083993,333.03806,427.890213,14.082303,64.978071,4.022568,1
7.055868,196.559134,21432.505719,7.099806,334.859327,427.624238,14.540012,67.175774,3.918136,0
4.771491,200.374076,48002.084596,9.165239,340.310176,310.927835,18.768328,63.664155,3.936973,0
6.984577,194.641394,22518.945402,7.127432,333.304411,427.884244,14.366715,67.677121,3.907412,0
7.117675,195.301285,21081.323308,7.066564,332.649625,426.66062,14.391929,64.899891,3.953916,0
5.445326,201.379459,28001.118179,7.208946,331.587484,365.091587,11.788777,65.944566,3.94699,0
7.050822,196.494029,22136.611043,7.242455,333.01306,425.753544,14.303974,67.223561,4.031582,1
7.138187,196.416313,22689.744476,7.027093,330.75639,424.245306,14.359133,66.38613,3.916585,1
7.033945,246.622871,15428.450916,7.570769,305.616422,516.217847,17.526819,91.602794,3.931731,1
5.078274,185.088385,18125.638398,4.105766,275.055642,528.156251,11.325447,80.338331,3.631042,1
7.097611,196.158748,21342.505664,7.148622,335.141513,429.431476,14.539828,65.150107,4.039668,0
6.179312,159.773264,21532.519232,8.063335,272.440848,509.77211,11.010545,99.996286,2.951961,1
7.145481,197.188624,22262.488381,7.132997,330.624751,427.819326,14.244064,67.127558,4.032252,1
6.985766,195.303636,22924.418875,7.086365,333.256252,427.686963,14.395844,67.722355,4.023924,1
7.169507,197.011367,22554.363561,7.159154,333.886955,428.887441,14.551747,64.74162,3.937361,1
7.174135,203.408935,20401.102461,7.681806,287.085679,315.5499,14.53351,74.405616,3.939896,1
7.179048,196.67665,21468.951193,6.974364,336.625699,418.140925,14.140351,67.433978,3.937828,0
7.155449,195.375223,22630.645907,7.143425,331.555324,426.636335,14.321102,66.785252,4.039593,1
7.055295,198.318809,21076.045801,7.029836,331.425872,427.097267,14.468355,67.126628,3.945513,0
7.175622,195.729549,21722.689566,7.233427,332.202827,420.098425,14.456906,65.631985,3.988898,0
7.076776,195.760856,22093.848622,7.058742,329.385589,424.885661,14.42205,67.066933,4.00962,1
7.050949,190.185717,22604.443716,7.06185,333.49177,423.971343,14.188188,65.935434,4.059244,1
6.937223,193.957328,22350.736633,7.060904,332.671798,425.956958,14.284365,66.550229,3.949892,1
7.129623,196.342966,22497.99626,7.150835,334.985209,421.546593,14.332467,64.884871,3.943474,1
7.180737,198.000481,22477.528627,7.141489,332.598565,422.810716,14.261684,67.727487,3.919598,1
7.016836,167.362187,18014.995703,5.903058,362.523416,471.484395,10.692588,45.002014,4.101398,0
7.301903,224.467802,23565.178404,7.554047,280.129485,487.333321,8.524864,68.940193,3.430699,0
7.088448,195.695314,21544.432631,7.227889,334.204007,430.01404,14.141586,67.972783,3.978593,1
7.04726,198.016116,22516.99845,7.115591,330.663922,427.276968,14.416888,67.810634,3.904817,1
6.12581,241.443535,8810.89581,5.740321,369.022715,367.967943,16.816507,47.661727,4.953058,1
3.102076,198.488651,45148.808118,7.82165,324.64408,427.216764,15.530123,54.574254,4.248075,0
7.015018,195.570668,21647.457699,7.004609,338.055015,425.790559,14.459938,65.603352,3.967634,0
7.112148,195.79614,21567.763229,7.045672,333.618616,431.935862,14.417583,66.663755,3.921975,0
7.163909,197.027562,22218.17942,7.209879,334.368618,426.628638,14.293835,67.20991,3.961657,1
7.05151,195.051794,23179.165959,7.281,332.769133,426.512212,14.342336,68.751137,3.983529,1
7.142604,194.321016,22473.632843,7.155001,329.405823,425.839284,14.447995,67.437481,4.045391,1
7.162899,195.111879,21495.166003,7.096301,332.529389,428.580947,14.237742,67.36109,3.943659,0
7.068534,196.527644,22133.877685,7.068286,334.389609,430.293171,14.569546,65.511122,4.007117,0
6.915678,198.618062,22320.766587,7.080046,333.518704,427.724136,14.15232,66.535322,3.957782,0
7.033296,197.447861,21118.789304,7.047988,334.278981,427.88055,14.451911,66.856767,3.993005,0
7.179738,196.736577,22452.907211,7.123557,333.729013,421.295024,14.305578,67.780026,3.97265,1
7.060662,194.376143,22682.683111,7.277637,335.609659,419.971923,14.200789,66.279276,3.917432,1
7.060553,196.368021,21155.519062,7.103507,332.512824,427.078429,14.4626,67.218037,3.994631,0
6.559253,164.635921,30660.209666,8.85227,272.524263,533.583858,10.958306,83.662331,4.216315,1
7.162954,195.983601,20991.593227,6.988432,330.629731,432.56658,14.156351,65.459868,3.963699,0
7.008455,194.903491,20964.852023,7.026458,331.580709,422.767322,14.344407,66.5554,3.89761,0
7.065418,196.393755,22417.311873,6.948453,335.128442,430.490984,14.4939,65.936686,4.041628,0
7.098656,198.006027,21643.347476,7.106,333.807534,426.571938,14.351763,66.408893,3.963957,0
7.103866,197.225082,22183.464276,7.119095,332.843116,433.463216,14.132149,66.97881,4.005819,1
6.000723,161.002305,21111.664104,4.339126,301.307173,384.753298,9.261965,71.002217,4.176219,1
7.051216,195.501639,21165.412947,7.018774,332.864938,431.773208,14.225552,66.346625,3.959287,0
7.140468,192.629456,21785.685448,7.072559,333.26771,434.186114,14.365854,66.916982,3.956151,0
7.063759,195.984642,22487.255843,7.190303,333.502635,429.040442,14.441927,66.099234,4.028671,1
9.130828,209.743044,11643.663476,6.594682,326.394577,509.661782,11.274065,67.528288,3.074134,0
7.051789,194.639472,22169.191344,7.207787,331.688623,423.949212,14.285607,65.908318,4.002742,1
7.169265,194.586552,21790.867065,7.030923,334.962583,426.391697,14.306063,66.612854,3.981328,0
7.068838,196.475336,22289.677866,6.999449,337.133689,428.712843,14.274361,66.965281,3.966265,1
7.106785,196.60959,22954.588048,7.251669,334.118998,431.315167,14.249059,65.514474,4.02473,1
7.290089,205.213105,26115.616326,5.137891,357.794088,402.874799,7.960478,63.698514,4.700618,0
7.99275,193.609138,14610.412832,7.218904,332.468755,468.602998,10.877062,67.181341,4.062907,0
7.004826,195.008067,22730.872097,7.229189,329.400036,427.34063,14.293825,66.685977,3.994522,1
7.128563,198.19597,22134.56922,7.116216,335.329722,432.134816,14.260904,65.168008,3.979802,1
7.014082,197.586224,21498.500999,7.107499,334.191577,423.565611,14.231893,65.9879,3.869993,0
7.173228,196.203212,22626.69763,7.129789,329.59907,429.560074,14.078282,66.062341,4.022695,1
6.968402,196.489204,20686.178377,7.041531,334.722202,425.25003,14.516624,66.291183,3.99791,0
7.075258,198.459847,22261.75811,7.048648,329.854502,423.960974,14.022225,65.737729,3.949973,1
7.17171,194.942031,22498.602075,7.077711,331.693371,431.620926,14.29752,66.198474,3.984784,1
7.033012,195.348438,21365.208621,7.115556,333.699751,426.584645,14.503002,67.056193,3.942061,0
7.171948,196.76182,21802.724969,7.197016,334.359248,421.03941,14.380237,65.88639,4.031719,1
7.141752,195.14416,22163.213721,7.144221,332.073213,430.441574,14.621662,66.794856,3.993704,1
7.793834,176.866483,18344.680361,7.567677,338.229597,371.216973,9.039042,76.288076,4.172935,0
7.097612,196.935491,21780.467017,7.04651,333.677111,425.606113,14.512778,66.068236,3.979655,0
7.050886,197.216848,22664.885501,7.263539,334.753531,424.406225,14.343173,68.101121,4.002098,1
7.110777,195.983958,22095.181797,7.05033,333.466254,429.884446,14.388643,65.298671,3.975605,0
7.05519,195.737355,20857.523503,7.244711,334.923457,424.719937,14.421316,65.919579,3.908861,0
7.1613,196.62354,21576.372361,7.247533,332.468311,423.517065,14.218051,66.321191,3.9957,1
7.053993,197.231365,22460.025475,7.067172,331.99858,419.061737,14.45658,65.984324,3.96981,1
7.133648,195.020718,21835.484484,7.12586,334.815015,429.877202,14.331626,67.045235,3.899954,0
7.127823,201.542244,22014.110556,7.189196,332.081256,424.209814,14.273751,66.371184,3.994732,1
7.126421,198.511701,22737.440895,7.193399,334.537539,428.442453,13.710778,65.92735,3.992893,1
6.980802,195.014725,21837.557999,7.047685,331.958828,426.319661,14.273981,66.215874,3.930553,0
7.087048,195.284125,22738.071758,7.279737,333.71735,429.175501,14.34531,67.057963,3.991222,1
7.204877,198.238752,22519.064937,7.286486,327.864826,428.549531,14.113144,66.913346,3.934848,1
7.12378,197.612307,22102.897544,6.91586,333.533497,426.827285,14.296031,65.700253,3.947236,0
7.011755,197.79981,22065.0647,7.112216,331.10752,417.596743,14.308344,66.595774,3.984007,1
7.147441,194.489863,22170.815712,7.317511,335.087174,425.930669,14.221683,66.041059,4.015141,1
7.157625,195.051423,21544.780338,7.096727,333.346563,425.619302,14.491481,65.181267,3.906955,0
7.001885,194.815126,21922.105229,7.050205,333.360837,434.483716,14.494245,68.442445,3.893192,0
7.074078,195.95864,22619.838559,7.159588,335.564025,420.595478,14.232094,68.578932,3.973167,1
7.007649,195.36113,21414.328308,7.050338,332.51846,427.051733,14.629717,65.721775,3.890542,0
6.114332,178.446286,30606.223593,5.568042,260.771026,472.255403,16.711471,46.552618,3.68041,1
7.119268,196.792967,21756.695709,7.03928,333.70776,421.292127,14.402349,66.087521,3.981536,0
7.082228,197.740148,22789.297778,7.21961,330.311096,425.935718,14.381093,66.142123,3.976627,1
7.017885,196.774276,22345.694617,7.247743,337.036909,426.001525,14.233853,66.4543,4.031769,1
7.195437,196.701741,21565.37,7.153229,332.183585,430.655196,14.636919,64.492382,3.890695,0
7.188569,197.118522,22290.583848,7.135224,336.652471,422.112124,14.172491,65.846095,4.003261,1
6.868158,192.135383,21783.268869,7.151799,331.250367,430.748047,14.233657,65.923886,3.940623,1
7.127392,197.604007,22678.467435,7.173325,329.265679,426.477802,14.196888,66.796107,3.990226,1
7.032433,194.368553,22524.060621,7.243549,330.861531,420.469132,14.132073,66.040473,3.951079,1
7.177182,195.456059,21644.381479,7.089427,332.847749,422.177564,14.166782,67.334995,3.949088,1
7.070048,196.099219,23141.322501,7.237296,332.172255,419.405491,14.375267,65.888344,4.022844,1
7.131499,198.056589,22732.315292,7.081633,331.400576,429.119785,14.395475,67.844171,3.989985,1
7.146328,197.409858,21566.943429,6.995706,332.28617,436.38511,14.347317,65.691089,3.964042,0
7.199269,194.720985,22575.111791,7.258586,328.463628,429.867819,14.395426,68.014315,3.974081,1
6.924408,195.486448,21811.742304,7.161622,334.175088,419.892163,14.064456,64.749798,3.968703,0
10.284126,249.324199,23259.012449,3.331266,284.405913,468.866264,5.188466,67.622616,2.844633,0
7.072551,197.918443,21426.212636,7.058046,333.194037,422.587421,14.27769,67.384922,3.923106,0
7.061895,196.392503,21084.152781,7.004299,331.709124,432.668595,14.708368,65.904664,3.992634,0
7.010209,195.526692,21640.071057,7.025002,335.541491,423.957329,14.355345,66.719056,3.974314,0
7.035283,197.467168,21980.160754,7.095534,331.048185,431.12506,14.3703,66.312778,3.961458,0
6.493764,205.150564,19821.338373,6.344963,298.379976,482.595709,12.164736,89.477718,4.910911,0
6.123194,181.312418,15135.127236,5.824042,293.840703,391.610322,11.591795,61.946683,5.457831,0
7.222037,194.053532,22329.108453,7.13013,332.439293,429.224255,14.476395,65.879511,3.966215,1
7.080191,195.572897,22031.575604,7.084211,331.819935,423.696898,14.552728,66.873118,4.051924,1
7.149887,195.998358,22356.333964,7.096014,329.748727,425.63628,14.205785,65.177957,4.034234,1
7.057382,196.790285,21364.637334,7.059759,334.075743,427.304578,14.399174,66.799759,3.991062,0
7.141366,193.965208,22470.185071,7.166894,332.448664,421.995266,14.467805,66.252798,4.001211,1
7.133147,196.766013,21579.49123,7.053642,331.018723,425.802355,14.425354,66.491993,3.964655,0
6.436444,192.995665,19579.389546,7.640874,314.922739,379.675367,12.897049,75.839132,3.415851,1
6.908853,184.944232,16965.314109,6.404354,351.345326,434.350219,11.812942,77.371361,4.693949,1
6.879405,214.731887,20509.331962,9.03525,321.383278,306.784302,12.477303,79.69208,4.70047,1
7.038348,199.597943,23951.105987,8.229993,320.483754,419.6622,11.964072,63.925554,4.575578,0
7.19012,194.872301,22073.393628,7.330043,334.405978,425.869518,14.220928,67.262196,3.918611,1
7.182017,196.111429,21948.634945,7.110842,331.879485,427.927188,14.232235,66.958067,4.027173,1
7.013815,197.718274,22608.35426,7.007578,332.225285,429.841271,14.26092,64.575598,3.937073,0
7.012528,196.301452,21716.176097,7.076643,334.918,427.115165,14.589487,66.261399,3.962821,0
9.267188,198.614395,24683.723566,6.110612,328.077533,396.876949,16.471969,30.383315,4.324005,0
7.034677,194.934613,21763.818561,7.12637,329.659656,435.733,14.413592,66.349489,3.918259,0
7.14047,197.102097,22814.923846,7.094641,335.005415,423.173979,14.371606,68.121268,3.972268,1
7.153106,194.836693,22972.147881,7.150115,331.785815,432.709311,14.082074,66.954725,3.97431,1
7.027016,196.166186,22050.948269,7.107515,329.957823,428.219583,14.428406,65.251084,4.041728,1
7.01023,193.800064,22049.609925,7.148447,334.144368,424.163871,14.268151,68.018237,4.035373,1
7.071604,198.032217,21837.855688,6.992674,334.224781,434.296023,14.474301,64.554994,3.900537,0
6.776879,189.438813,19663.791312,8.386404,375.457345,420.357392,14.83156,61.05042,3.322065,0
7.10899,196.697515,22180.869975,7.19818,332.906563,425.265551,14.302936,65.480848,3.99782,0
5.271971,193.169509,22005.43655,6.18395,267.825648,351.48028,15.664382,68.615876,4.119436,0
6.963563,197.078086,22869.715451,7.160878,332.215256,421.005984,14.178619,67.238669,4.04427,1
7.133739,196.838853,21886.361362,7.096128,334.743883,435.223607,14.153038,65.357885,3.903311,0
7.141126,196.739527,21902.734215,6.973867,330.880639,428.823141,14.468392,65.609455,3.899388,0
7.066813,196.075708,21499.157493,7.013998,331.641974,429.007996,14.637022,65.276039,3.981138,0
4.668102,193.681735,47580.991603,7.166639,359.948574,526.424171,13.894419,66.687695,4.435821,1
7.151828,196.462246,21404.432017,7.028025,332.831875,427.802979,14.406827,67.488131,3.925944,0
7.702183,192.137531,18126.030963,9.154581,364.191227,646.732599,14.376337,90.527536,4.382159,1
7.096422,196.809275,22152.922044,7.245941,331.694538,435.092055,14.442979,65.62504,4.007511,1
6.997112,196.683912,21654.43139,6.881195,328.911886,431.592864,14.351848,66.502167,3.954377,0
7.066142,207.361429,22523.43357,8.064693,343.293876,503.253317,12.168334,83.656615,4.127599,1
7.005878,195.645731,21928.49922,7.104078,338.287029,424.077473,14.343289,65.754412,4.027121,1
7.016347,194.81379,22076.307752,7.116809,331.917534,428.40996,14.323115,66.454914,3.882795,0
7.113586,196.406522,22235.075657,7.137489,332.931345,423.050805,14.249082,65.463755,3.926017,0
7.064133,195.125683,21830.40839,7.079571,333.124444,420.288478,14.580638,67.392625,3.989559,0
7.134296,196.643188,21289.239285,7.056705,332.64997,427.678762,14.550014,65.650856,3.979357,0
7.172517,194.11855,21220.309798,7.221981,333.033485,430.448143,14.441827,65.078592,3.904336,0
7.030925,193.661217,21688.529958,7.114004,332.161899,438.268764,14.408027,65.860351,3.947502,0
7.095106,195.416548,22565.453002,7.134647,336.888338,418.664973,14.086551,67.419092,3.902505,1
7.049978,195.643711,21618.906346,7.112068,332.709283,432.751819,14.416155,65.830306,3.963879,0
7.17217,197.904183,23330.847597,7.049984,334.268699,425.472146,14.473393,66.862443,4.039503,1
7.181579,193.05043,23361.588382,7.168115,331.780672,423.881446,13.90483,63.869342,4.007124,1
7.034517,192.518796,21217.90647,7.138011,333.585112,425.992586,14.467033,65.810978,3.987335,0
7.184468,196.525052,21273.591852,7.060196,334.120995,436.395708,14.389521,65.47459,3.857482,0
7.068326,195.917534,22211.976933,7.154307,330.453663,433.863075,14.295423,65.813227,3.935811,1
4.906492,173.779159,14786.138901,5.843757,267.561144,620.34684,7.775896,38.794307,3.152345,0
8.554097,191.708414,32112.569874,8.115355,293.655798,518.944362,8.56758,58.062463,3.56361,0
6.967736,196.523181,21803.603373,7.108745,336.575342,425.388607,14.479487,65.556767,3.898807,0
7.160993,197.135006,21631.712462,7.195464,335.405279,425.749757,14.322466,66.849313,4.004663,1
7.087973,196.010739,21476.050365,7.14932,331.905609,431.538407,14.099037,66.020433,3.983784,0
8.296344,198.197051,17468.999802,8.262904,369.59074,294.325142,18.026098,44.061625,5.400811,0
6.996086,190.865901,22086.815715,7.110768,333.849382,425.09612,14.184357,66.987122,3.975377,1
7.137147,195.283815,22719.649822,7.190236,328.095969,423.667159,14.312056,67.959984,3.944924,1
7.016768,196.607413,22006.837739,7.165396,334.44611,426.478234,14.390044,68.117515,3.966564,0
7.077943,198.918029,21906.917827,7.119278,333.262822,425.576698,14.360367,65.991553,3.964773,0
6.941551,194.32076,21209.798189,7.153858,335.261221,433.448069,14.432419,65.119179,3.932895,0
6.04336,188.662329,24856.607107,4.371025,295.895207,355.007461,7.619812,79.944916,4.745248,1
7.235348,197.146128,21445.275205,7.178447,336.964332,425.754432,14.555879,68.167869,3.997967,1
6.866357,185.631487,13979.38175,7.043425,375.434032,462.535115,17.194992,74.55779,4.346154,1
7.019714,194.76822,21723.440861,7.175485,334.025617,436.151803,14.407197,65.982959,3.9138,0
7.038706,196.024267,22219.900029,7.102024,334.661528,426.055993,14.358311,65.336262,3.992989,1
7.138961,193.565513,22583.060105,7.283476,335.832491,423.084646,14.405943,67.214284,4.039578,1
5.393346,172.550261,28099.038729,5.789669,372.621943,505.542349,17.530704,67.273874,4.633855,1
7.18754,197.518048,22189.54725,7.37315,327.906004,418.75279,14.216337,67.720434,4.014675,1
7.149816,200.349122,22319.596479,7.03008,333.646142,427.848715,14.397801,68.058601,3.860737,1
6.867522,182.672169,20247.201029,6.867073,330.805652,420.333457,17.952822,60.0688,4.837268,0
4.740057,176.655631,24069.335915,4.013444,367.805016,288.221298,13.20422,77.880375,5.467936,1
6.985726,194.447351,21928.964925,7.290745,335.949483,422.360889,14.564685,66.250236,3.965613,0
5.264284,142.534126,25556.053128,6.600787,416.262799,443.759231,7.491362,72.879848,5.10024,0
4.89196,153.506232,9559.547392,7.847066,349.82439,496.872845,11.457624,61.110529,3.90427,0
6.994351,196.91094,21312.389702,7.030886,333.100682,427.706131,14.646578,65.385794,3.988931,0
8.490572,204.123648,22989.79639,8.270793,358.847115,435.000898,17.084246,62.421637,3.875557,0
7.092444,196.191454,22969.732604,7.094223,334.04001,428.195951,13.977479,66.797807,3.980497,1
5.92454,186.620068,44376.187382,6.61418,341.637774,273.446838,12.758115,59.456691,4.224343,0
7.50935,192.467955,17045.600095,8.815845,346.741822,266.357744,15.930051,83.262529,4.321856,0
7.154516,197.281487,22637.030887,7.297059,335.198742,422.299334,14.074328,65.874525,3.93479,1
7.15857,193.96932,22873.15657,7.165673,330.128625,423.605829,14.439652,66.73118,3.949877,1
7.161943,199.406057,21940.561815,7.261423,331.505918,429.291792,14.466737,68.097531,3.982787,1
7.19909,193.204034,22012.87779,7.138142,328.632694,426.129514,14.388311,67.258228,3.985353,1
7.124774,193.658526,22506.721681,7.158396,332.342568,422.407556,14.217428,67.111976,4.04458,1
7.157006,194.941308,22079.18446,7.077983,335.963033,424.058021,14.473207,66.971015,4.050558,1
7.160457,194.110207,22060.226736,7.226485,330.239286,425.344599,14.279651,67.108748,4.031252,1
6.817608,219.337429,27548.614177,6.298121,340.937614,530.710026,19.486791,68.568791,3.048292,1
7.135836,195.872506,21528.238955,7.139178,331.399367,425.331507,14.317761,65.891164,3.92759,0
7.196265,196.53547,22369.504205,7.028817,337.397348,429.684245,14.355818,65.476646,3.967444,0
6.978562,196.488853,21031.674585,7.042244,329.659948,429.664385,14.464751,66.363935,3.917917,0
7.5357,221.792481,14829.745971,6.701159,366.4122,583.436488,17.731882,59.686076,4.208354,1
7.494391,205.190707,25058.160217,6.881659,327.949396,313.09152,16.589072,72.976741,3.579652,1
7.105361,195.690158,22180.426891,7.22329,334.907494,426.547378,14.578091,66.67601,4.044938,1
7.135053,197.223331,22258.429221,7.287724,330.768107,414.706449,14.672442,65.717869,4.043401,1
7.0779,195.478326,21227.991079,7.135979,334.380728,426.031847,14.318368,65.718688,3.94505,0
7.037205,196.322305,22518.042759,7.158204,334.445003,433.679281,14.181568,66.71289,4.04329,1
7.083615,191.32877,23375.307817,7.31195,333.967095,424.078257,14.167078,66.505493,4.004747,1
6.104926,241.175718,13539.811664,6.015548,335.396475,363.633403,13.456484,60.923713,4.131933,0
7.039115,192.483467,22575.201037,7.239194,330.548401,423.077075,14.272869,65.899375,3.92263,1
11.449739,186.652648,12355.344107,7.065576,321.831513,503.96411,16.282371,77.152173,5.166903,0
7.191374,199.247853,22139.849538,7.202053,331.124042,427.500115,14.242776,65.731431,3.941506,1
6.994905,194.732513,21323.657441,7.099674,332.322864,431.87367,14.362222,66.514286,3.92725,0
6.286807,258.300052,13777.376191,7.483258,328.68065,563.434775,16.460837,73.516654,4.104863,1
7.271249,191.000332,22607.298264,7.366881,333.574992,417.787174,14.429097,66.371608,4.012835,1
6.95415,193.492888,21684.887694,7.151456,328.828682,427.306654,14.252128,66.044086,4.007148,1
7.154524,194.49298,21164.966578,7.075016,334.262437,427.354064,14.301205,66.834917,3.947889,0
7.072956,196.9772,21240.094365,7.156702,338.676099,435.81685,14.252029,65.333314,3.983334,0
7.149011,196.135971,21774.568377,7.008521,332.654374,430.773848,14.649827,66.168797,4.004458,0
6.993761,197.484343,21822.216155,7.190763,331.278376,426.608255,14.250651,67.129656,3.976636,1
8.927906,188.054419,22139.878848,4.252721,376.334566,438.515587,8.597973,92.828321,5.474355,0
7.058088,196.289791,22768.496124,7.231004,331.835417,429.994496,14.359785,65.839948,3.976007,1
6.968721,195.167021,22438.032667,7.078028,330.113524,415.390089,14.294859,68.017753,3.933364,1
7.180864,197.701602,22345.806876,7.10191,336.25512,422.62926,14.108691,66.306972,4.012067,1
7.125605,195.939727,22342.983964,7.061907,334.285908,429.109128,14.243277,68.395208,3.958764,1
7.185676,196.454576,21530.858832,7.030649,332.920961,427.732962,14.153313,65.845277,3.899447,0
7.045583,198.482109,22367.972954,7.222425,332.982049,420.456057,14.223222,65.873563,3.925086,1
7.044119,195.669029,22944.187584,7.225506,330.860426,417.972555,14.446177,66.109985,3.985399,1
7.134664,196.383511,21768.631574,7.245756,332.871246,420.493196,14.114579,67.078519,3.976334,1
7.603775,214.682778,11459.622445,10.999995,398.920869,321.069074,12.010676,58.100707,3.584985,1
7.119086,195.778069,22072.781478,7.202366,331.525056,421.11907,13.961169,66.204113,4.013739,1
7.123096,194.247317,21146.844909,7.158155,330.985217,420.806004,14.549653,66.856117,3.960216,1
6.761414,216.532498,32156.819439,8.723064,343.601104,526.325214,20.314691,60.521593,4.350207,1
7.156877,197.374809,22502.77764,7.06872,331.597141,434.457941,14.133541,65.740599,4.017845,1
7.160467,183.08931,6743.346066,3.803036,277.599099,428.036344,9.799625,90.035374,3.884891,0
7.261549,193.819471,22629.234253,6.90614,327.947761,430.244417,14.367823,65.150084,3.980904,1
7.09243,196.17421,22829.950793,7.163475,330.064571,419.754575,14.475965,67.051302,3.95071,1
7.11028,193.916838,21726.666995,7.025472,333.983197,423.502024,14.457508,65.947285,3.952894,0
7.191859,195.641697,22291.405905,7.317292,331.489306,420.103377,14.347677,67.623097,4.000066,1
7.084148,197.384009,22991.268688,7.077647,328.11539,426.401375,14.379666,66.92378,4.020161,1
7.035675,193.19321,22558.847192,7.288417,332.349998,412.004772,14.22252,67.525338,3.915627,1
7.059917,195.815728,21688.529935,7.340659,335.256189,430.123076,14.216068,66.104688,4.069171,1
7.116127,197.054167,22432.216045,7.149909,331.159317,427.657154,14.220662,65.279168,4.098981,1
7.228791,195.697877,22130.528166,7.199768,332.476851,427.680175,14.438897,66.72837,3.917136,0
7.156424,197.993538,27025.206963,6.734527,359.710517,448.457161,12.511973,49.299849,2.958415,1
7.152926,195.553059,21748.671322,7.190924,336.588059,422.932274,13.932404,67.088429,4.018037,1
7.004415,196.300202,21648.345811,7.089076,333.368524,425.018415,14.494277,64.794758,3.918779,0
7.096718,194.550002,22861.827429,7.229651,334.257284,428.65272,14.125595,67.703823,3.953206,1
6.966843,197.13329,21511.88479,7.056553,333.188085,429.639185,14.039131,65.597107,3.923578,0
7.08701,196.373157,21674.704375,7.094974,332.673067,428.010967,14.326763,66.350866,3.977818,0
7.09915,195.490673,21501.180863,7.057471,336.772767,433.599967,14.281747,67.80517,3.930498,0
7.146342,195.217256,22334.344314,7.036758,335.811024,424.334885,14.1483,67.378004,3.966144,1
7.167114,194.615368,22120.881335,7.23584,333.306463,430.933914,14.179379,66.752102,3.98284,1
7.736313,225.063103,19496.848592,7.158343,289.945985,433.974022,15.153817,74.765101,3.700917,1
7.029171,195.959297,22620.616903,7.208282,334.836191,422.075872,14.494542,67.378967,4.007736,1
7.200179,195.552767,21180.504083,7.14413,334.751653,430.235581,14.475841,67.951147,3.964283,0
7.089631,192.25406,22060.909151,7.098436,334.183531,429.729903,14.387361,67.167516,3.902802,0
7.875895,226.284788,12710.249452,7.303127,346.403258,445.374147,6.063462,63.128044,4.238589,0
7.019176,194.26663,21531.141021,7.149976,332.355726,434.099317,14.295876,67.254067,3.954283,0
7.172249,195.155236,21809.271791,7.145961,333.82368,422.999872,14.402564,64.459491,3.96199,0
7.048776,195.414102,22003.849912,7.22754,330.061564,418.370216,14.455311,66.866991,3.945229,1
7.101725,197.645958,22499.061295,7.186696,333.448209,419.848923,14.400319,65.902846,3.992015,1
7.376161,199.17016,17181.008814,6.602452,388.028517,357.372931,16.948292,75.88616,4.010235,1
7.191494,175.460782,34933.784401,5.427533,332.196048,411.302087,11.665995,60.281932,4.320684,0
7.024255,195.408627,21189.521888,7.227617,331.768148,430.935696,14.336739,65.651838,3.970427,0
8.805178,157.231982,4728.650671,8.848262,356.773638,299.279775,9.439925,61.640597,5.176205,0
7.238672,197.686078,21599.436419,7.117901,335.345002,422.788671,14.227904,66.650798,3.916128,0
7.133697,196.16054,21717.410184,7.051,331.915941,429.81805,14.470762,66.626922,3.95538,0
7.118564,193.773701,21495.5055,7.14192,334.500531,428.802722,14.591414,66.204131,3.956079,0
7.122679,197.588967,20830.996446,7.030533,332.593703,434.292577,14.280826,65.735703,4.033228,0
7.102161,192.921314,21942.469564,7.13074,330.136559,413.313035,14.19262,66.968433,3.998961,1
7.039596,196.645682,21963.666761,7.227301,332.883756,422.349793,14.481469,67.707736,4.006533,1
6.35311,206.26981,18409.037315,3.723776,348.209863,389.683234,13.205425,60.291342,2.856175,0
7.069448,195.613411,21382.876685,7.117643,334.12888,432.450217,14.414092,64.95129,3.898347,0
7.140214,194.564837,22265.326267,7.118029,334.484741,423.611398,14.23293,66.689898,3.942019,1
7.06927,196.89921,21322.215065,7.085182,335.382794,424.610204,14.420962,65.598169,3.957732,0
7.197006,196.368329,22997.717857,7.199012,335.252986,422.153903,14.489111,65.229197,4.004636,1
7.193438,195.952254,21027.714232,7.000412,333.599105,423.841672,14.464357,66.85632,3.929401,0
7.062784,192.247914,21587.280362,7.166152,327.090364,420.64617,14.113115,66.830088,3.999335,1
9.927024,208.490738,19666.992792,8.008618,340.237824,482.842435,11.360427,85.829113,4.051733,0
7.012086,195.369305,22038.65873,7.149729,332.473889,425.044558,14.153902,65.776057,4.009945,1
7.017513,193.358961,21492.611741,7.051478,334.8076,433.046278,14.551124,67.067422,3.961649,0
7.053267,195.876101,21491.411795,7.15305,335.526216,435.217727,14.39914,65.196285,3.951239,0
7.177092,197.971549,22202.38538,7.163586,335.17435,428.011106,14.590893,64.420239,3.936795,0
7.062785,198.615432,22720.122978,7.08374,327.494366,429.005169,13.9763,66.700061,3.998109,1
8.076126,132.670305,10816.273367,9.513269,314.970495,479.758924,14.685851,72.638303,4.291355,1
7.040511,196.25558,22038.10561,7.143557,328.738288,424.474108,14.209981,66.212717,4.036363,1
6.60968,216.428032,17963.866845,7.725314,346.285329,466.103008,11.468432,41.252869,3.589146,0
6.999101,194.088452,22391.936692,7.279082,328.96389,424.919862,14.290353,67.384761,4.022367,1
7.115644,196.450831,21618.030913,7.038215,333.110922,429.615516,14.420311,67.166879,3.983025,0
7.006299,197.475065,21607.886435,7.043088,331.378812,425.524386,14.248449,66.006926,3.995924,0
7.107807,193.835121,22447.240581,7.291899,328.611734,422.496857,14.32531,67.775163,4.044223,1
6.96326,196.429929,21950.685161,7.13073,334.289553,432.11125,14.625538,66.11294,3.991395,0
7.190462,196.732422,22614.679126,7.196625,336.53463,421.722428,14.461906,65.06756,3.915787,1
6.281904,160.306685,17095.27007,6.730577,305.094,424.446185,14.374967,41.27983,4.45773,1
7.010014,194.559622,21042.320046,7.093945,335.417825,425.940365,14.190696,66.659101,3.868724,0
7.081593,195.149467,22510.621496,7.266802,330.790198,415.642175,14.228713,66.197059,3.944191,1
7.17867,195.555814,21573.660915,7.046455,331.05318,422.707653,14.431408,67.284157,3.993336,0
6.957977,197.083168,21697.880633,7.016959,335.265122,429.335388,14.378982,66.602845,3.862823,0
7.143256,196.549798,22618.009943,7.184664,331.763017,425.223406,14.27719,66.542451,4.033639,1
7.037709,194.28666,22093.391167,7.08239,336.397525,423.720638,14.629569,67.177612,3.961977,1
7.057828,196.755548,21855.896817,7.142869,333.21615,428.995729,14.290271,65.915577,3.908324,0
7.108058,195.683708,22153.975586,7.303976,331.075551,417.858629,14.498084,67.399661,3.995145,1
7.006762,197.460386,22566.603669,7.228186,327.870588,417.846824,14.072075,67.800532,4.006508,1
7.251484,193.304478,21518.577729,7.082518,334.260314,434.340648,14.449241,66.441174,3.951656,0
7.168895,197.6751,22851.739609,7.167435,332.410208,420.924776,14.200742,66.322119,3.970519,1
7.148238,198.270776,21108.186624,7.134656,331.835066,424.859221,14.308095,67.265218,3.956837,0
7.099685,195.389725,22408.475191,7.178277,337.165861,425.37908,13.960345,66.525035,4.044257,1
7.172212,197.176991,22773.475519,7.270449,330.346682,423.771028,14.325776,66.067376,3.95297,1
6.762833,232.075177,27159.384345,7.884991,350.445293,465.413775,13.863965,64.812257,4.916579,0
7.232365,198.370149,21723.914694,7.036314,333.612421,427.761215,14.813761,66.777169,4.020652,0
7.009332,193.304109,22459.974493,7.128927,333.065371,428.725129,14.309017,66.164693,3.976769,1
6.99778,194.02831,22034.110584,7.193775,333.823636,421.795486,14.290524,65.355856,3.957203,1
7.154891,194.852718,22044.397185,7.252098,335.110387,425.917424,14.080451,65.623593,3.964928,1
7.126124,197.19486,21895.056813,7.228366,332.652563,430.713614,14.305904,65.58877,3.977137,0
6.769835,177.173258,34596.001872,2.866073,369.532996,389.516286,17.268074,64.868608,3.65579,1
7.137095,196.481448,20946.631603,7.082814,332.314011,433.192187,14.421866,66.500403,3.997827,0
7.12042,197.904792,21659.480832,7.172886,335.491184,428.257461,14.156539,66.30321,3.999563,1
7.139674,196.913153,22378.705893,7.00665,332.189827,422.442561,14.072715,66.959899,4.011904,1
6.139743,168.444214,23894.13601,9.494582,318.026087,494.129125,19.116022,60.264767,3.841222,0
8.457901,228.732152,16061.590098,4.142485,356.304825,370.712108,14.06171,82.364692,4.914276,0
7.030798,197.923146,22187.808815,7.13911,330.465257,424.621212,14.090698,66.700944,3.925952,1
7.077683,196.235008,22464.083005,7.087856,332.282769,420.494236,14.348918,66.56666,3.944588,1
7.126518,194.9721,23058.014341,7.081118,331.079809,414.36994,14.245944,65.258885,3.942542,1
7.074727,195.527094,21664.667144,7.261704,334.707896,423.305121,14.248353,67.367744,3.907345,0
7.226494,195.578577,20918.180166,7.055449,333.483507,424.791161,14.652927,65.414406,3.911919,0
7.137036,198.005929,21392.088515,7.057076,335.500044,428.396426,14.453573,67.543733,4.010662,0
6.986584,196.319357,21753.725676,7.089914,336.332262,429.225157,14.278818,64.574754,3.905701,0
7.131378,197.323407,23008.208516,7.191842,336.063522,422.033626,14.270827,66.093026,4.021513,1
7.07609,195.742803,22570.9997,7.132613,327.62529,424.154965,14.348354,66.839653,3.981471,1
7.833496,220.957433,28338.981461,9.370848,316.274403,462.142424,15.333005,57.033522,5.58083,0
11.563169,174.942862,19359.428816,6.495619,332.44649,366.312672,17.529526,38.4312,5.107236,0
8.558663,214.107325,38767.756369,6.6081,310.014951,382.622275,15.896958,57.196827,2.590635,0
7.079854,195.250051,21221.901289,7.206462,332.095876,421.768809,14.101516,66.193052,3.923604,0
7.140564,198.62869,22519.864085,7.075654,328.985952,421.287728,14.418692,66.523378,4.000061,1
7.170702,198.26262,21853.53632,7.248375,336.693494,433.086668,14.181849,67.167119,3.980045,1
7.283914,197.602125,23112.504435,9.502809,332.331985,449.361679,14.458591,70.000219,3.571863,0
7.138473,194.46559,22842.828633,7.207886,334.548573,425.186943,13.978156,66.986202,4.010228,1
7.096775,197.947243,21114.372204,7.104875,333.888424,429.109323,14.685437,65.994899,3.967121,0
7.148077,195.097835,23199.096782,7.109926,332.792998,426.334305,14.317551,65.478711,3.955995,1
9.10733,202.514711,24678.329289,5.575906,334.717335,467.110762,12.937329,46.935252,4.49214,1
4.633203,208.908036,29307.128945,6.125585,304.031776,456.214828,10.817158,111.11531,4.751859,0
7.183646,194.963374,22700.437509,7.105599,334.135607,422.613728,14.431534,66.974304,4.044956,1
7.229093,196.000257,21952.702533,7.024646,331.557253,420.925117,14.22745,64.927393,4.036179,1
7.026157,196.544248,22046.17141,6.987673,335.048448,427.951499,14.434545,66.353209,3.968532,0
7.076922,195.645789,22312.14351,7.279995,332.785125,431.227168,14.597621,66.666461,4.027626,0
7.175695,196.416746,22749.264843,7.178053,329.435704,424.922805,14.414509,66.330084,3.992035,1
7.016438,198.415715,21289.599668,7.0978,331.724785,424.673315,14.132438,66.230587,4.055384,0
7.160015,194.780253,22127.038332,7.151382,333.32676,417.65391,14.336962,68.216419,3.948862,1
7.164118,193.141679,21355.923492,7.032241,333.906254,423.142043,14.49284,67.990861,3.953387,0
7.156677,194.947802,22634.665664,7.06672,335.719097,420.896199,14.308362,67.804645,4.003627,1
7.184498,196.434714,21581.28072,7.282078,329.520125,428.27664,14.324254,67.139058,3.995453,1
7.84588,193.785,13769.860238,9.007161,343.620823,510.305603,13.767802,99.175595,3.667154,1
7.163797,197.532285,22399.244831,7.224649,333.402812,428.239993,14.29306,65.431581,3.96104,1
7.09782,197.897041,22049.945579,7.090191,333.746184,422.032132,14.66303,66.18892,3.899696,0
7.068147,196.305895,22194.704191,6.980663,333.744345,425.15022,14.513209,65.802064,3.976892,0
7.186589,196.026332,21515.404912,7.252884,334.045595,426.175927,14.399724,65.986608,3.920507,0
6.992021,195.488698,21964.600749,7.106897,333.031281,421.663951,14.233251,66.007987,4.021455,0
7.089442,198.890806,22233.943821,7.055424,335.674243,428.572071,14.299451,66.574481,3.980015,0
7.124301,194.004036,22732.472681,7.16765,331.402277,428.305896,14.391875,65.776554,4.004953,1
7.116163,196.107183,22451.067074,6.864245,336.183162,423.946133,14.125148,66.516792,4.005569,1
7.061509,193.840927,22292.811075,7.251258,336.169924,418.765047,14.319773,66.445128,4.004456,1
7.028076,194.881993,22654.099938,7.23188,334.943058,426.127035,14.447894,67.652328,4.02697,1
7.082828,192.848373,22309.11641,7.157684,329.170808,428.915211,14.385962,67.01454,4.006251,1
5.251354,167.924336,34768.93342,4.023081,377.143489,315.536105,10.429159,70.593387,4.072252,1
7.157488,196.776079,22619.781271,7.111956,331.115915,419.659033,14.107691,65.079804,3.989791,1
7.066064,196.307001,22567.3247,7.046691,334.196577,425.475359,14.146636,67.761368,4.021629,1
7.102697,196.788406,21167.453273,7.14092,330.110529,426.55658,14.37975,66.760718,3.909679,0
7.230776,196.403156,22238.332802,7.291427,332.325206,427.454347,14.389726,66.645505,4.014829,1
7.096023,197.018158,21998.480528,6.918866,330.841775,429.200196,13.920929,67.092897,4.037024,1
7.059311,193.481477,22952.327634,7.223522,331.527877,423.078102,14.364593,65.395756,3.897488,1
6.952859,194.774467,21639.675073,7.103311,335.995935,425.719196,14.286438,67.380859,3.882279,0
7.168427,195.346246,22372.026625,7.079559,330.536848,428.000377,14.550109,67.936402,3.976786,1
7.136179,197.469646,21891.912056,7.198548,333.51664,432.174051,14.361337,66.632952,3.939481,0
7.097015,197.670316,21606.584249,7.090389,332.928246,428.759462,14.494574,65.598449,4.051757,0
7.024902,196.480287,22666.486874,7.149901,331.851985,431.933138,14.751105,67.095101,3.993965,1
6.864917,170.827792,20464.772694,7.074063,365.941346,400.96527,14.003874,51.603004,4.493747,1
7.080446,196.658947,36966.853319,8.986784,294.315733,530.052919,13.822057,85.777222,2.664946,1
7.177815,199.152629,22360.090644,7.230428,330.727019,419.090569,13.903896,64.630567,3.946934,1
6.944197,195.124164,22236.332318,7.133545,334.309377,425.729348,14.430131,66.390912,3.921857,0
7.129882,197.305625,21792.011174,7.24004,330.927678,428.115309,14.534177,66.746443,3.973387,1
6.996514,193.877324,22029.582436,7.178638,330.314237,423.836492,14.501511,66.691642,3.995998,1
6.581083,217.538504,24480.671795,5.837152,310.63291,476.458667,11.434239,48.55191,3.51137,0
6.990018,192.909005,22717.746866,7.14778,331.175461,424.589888,14.278817,66.62301,3.997964,1
7.00649,196.534426,21078.71721,7.133607,333.827013,422.764536,14.281649,65.439895,3.916013,0
6.968809,195.695319,21193.773979,7.196776,334.195456,422.694111,14.372567,65.777342,4.038784,0
7.16079,197.541634,21226.245782,7.186469,333.801368,429.540427,14.251956,66.605038,3.993762,0
7.081437,194.886688,21541.333889,7.34704,327.095767,428.281172,14.325071,66.814551,3.972364,1
6.65365,172.584512,34816.444538,8.289307,293.611048,389.471149,15.872474,67.976869,4.871406,0
6.875034,196.215179,22033.890445,7.070876,332.705213,427.607889,14.412087,65.819645,3.995607,0
7.199584,193.654306,21634.237117,7.065624,336.189154,430.641578,14.592177,66.266938,3.963213,0
7.217856,195.203458,21935.58173,7.071537,331.609286,425.948453,14.301929,66.982128,4.024546,1
7.263545,160.443065,16129.706923,8.091014,328.447174,478.515081,12.814836,43.592301,3.95053,1
5.198068,200.464445,37200.242065,7.401099,311.794887,573.135532,17.238656,74.948217,3.295034,0
7.121774,197.540291,22285.652442,7.216067,331.056065,421.947332,14.105857,66.759862,4.003274,1
6.955378,198.815485,21967.626817,7.243416,331.11524,427.84356,14.18823,66.571602,3.973551,1
7.081418,195.956168,22185.88245,7.167487,337.213791,433.426714,14.283675,66.923824,3.942387,1
7.092104,194.111024,21874.300651,7.108124,330.482049,424.787173,14.121251,66.121699,4.017902,0
6.979442,194.665498,21973.380918,7.206728,331.078186,424.56707,14.273615,66.171927,4.029822,1
7.200233,194.737322,22469.415132,7.147984,334.736118,424.418545,14.363155,66.417596,3.95298,1
6.970037,182.888589,32037.605471,7.412765,376.951932,325.7924,14.351241,70.05272,4.275288,0
7.128742,194.368125,21955.110057,7.167437,335.821669,427.82901,14.595693,67.043919,3.917644,0
7.028838,197.134758,22037.749162,7.321704,335.149148,429.126793,14.352254,65.234596,3.960821,1
6.616649,201.780847,17063.172108,8.353374,360.61231,491.724065,10.353995,60.009184,3.881767,1
6.174751,138.513588,21504.138821,10.860295,338.703016,447.805465,14.241965,31.705933,2.566049,1
7.115191,198.700544,21356.76374,7.04843,339.08329,423.694329,14.605905,66.218555,3.960133,0
7.103108,192.859235,21520.741361,7.275096,333.034414,424.105042,14.310273,67.157024,4.023778,1
7.095039,195.37542,22488.788144,7.11656,336.898314,423.802635,14.192355,66.168584,3.929008,1
6.145148,197.541072,39657.272108,9.900159,288.157883,319.434033,11.587378,120.030077,4.600886,0
6.968131,205.982582,19207.311771,7.285998,283.478555,459.176682,17.916964,50.87882,3.030824,0
6.993739,198.350361,21142.079724,7.214026,329.284763,435.339123,14.22345,66.077246,3.943706,0
7.085705,198.324083,21033.189295,7.178759,331.572648,419.985599,14.51323,68.210421,4.016241,1
7.024195,194.875579,21079.972297,7.104235,333.495108,431.19153,14.52701,66.934372,3.948986,0
7.163167,194.602788,21744.279092,7.123005,334.672323,428.557763,14.391422,66.678492,3.912809,1
6.660212,168.283747,30944.363591,5.858769,310.930858,523.671298,17.884235,77.042318,3.749701,0
7.075656,196.635285,21663.881085,7.135488,332.263521,421.66687,14.499808,66.87721,3.990882,1
7.100274,196.005646,21379.22922,7.18345,329.091926,422.971107,14.454686,66.5912,4.021727,1
7.066568,196.523688,21641.074048,7.067191,331.146708,424.620439,14.537136,68.0013,3.994625,0
8.228564,182.196905,18132.094401,6.712007,335.780518,569.934888,15.119348,63.359706,2.781944,0
6.890275,185.744147,12218.095945,8.022936,350.657872,394.440581,17.064897,86.631823,4.100697,0
7.682762,211.663852,12723.342101,6.672341,380.945603,360.107441,14.175317,69.949675,5.044306,0
7.120073,195.652177,21894.124474,7.131881,334.149181,424.716184,14.485585,66.629276,3.983867,0
5.841119,194.616894,17721.959557,5.646297,410.358673,622.963575,17.629541,93.070691,4.23756,0
7.714089,194.738282,27336.962624,7.631357,322.072956,347.829203,10.641789,63.722933,3.182583,1
7.316805,217.522862,31903.399812,9.865048,376.937972,425.9134,8.992754,69.50922,3.508373,0
7.105269,197.738819,22980.924011,7.353448,331.318183,420.479124,14.325957,66.01096,4.0202,1
6.96302,195.432357,21650.216922,6.99634,334.473864,427.630194,14.240556,66.254091,3.981693,0
7.153062,194.282142,22134.553379,7.292611,333.413329,423.966529,14.238365,66.234082,3.946389,1
7.013465,193.709685,22046.430482,7.098034,331.521445,420.231039,14.202134,66.029706,3.984425,0
6.990453,225.923446,17679.351101,7.248867,377.86804,527.205818,13.787264,87.83905,5.184442,1
6.217255,205.648251,32911.929717,5.946074,298.39049,414.771017,12.128366,79.245033,2.081425,0
7.213404,196.56462,22335.273261,7.191242,329.506505,424.666862,14.065434,66.635627,4.056442,1
7.196019,192.159081,21938.448132,7.255945,331.491044,417.313464,14.343888,66.456389,3.961532,1
7.172089,195.586567,21826.046086,7.146708,335.570717,428.183872,14.300558,67.412099,3.953932,0
7.27294,196.674798,21792.308663,7.210281,333.261728,427.193393,14.013361,66.851755,4.05484,1
7.088249,196.975353,21180.718411,7.129306,335.252024,425.825268,14.171087,67.66694,3.946436,0
6.999954,192.26579,21804.068327,7.02315,334.404899,429.866892,14.179499,67.564555,3.97017,0
7.798454,188.394942,32704.569286,11.078872,258.191184,507.178688,18.272439,85.177662,4.107267,1
7.036766,191.714046,22568.482566,7.027743,331.288607,426.585358,14.378341,66.31321,4.021849,1
6.400256,172.299,15936.24736,4.935998,340.39293,435.40561,11.075622,58.365995,4.561494,0
7.051694,195.598162,21653.833044,7.02029,333.547044,422.326907,13.924926,64.850346,3.984346,1
7.151979,199.141269,21905.686203,7.143501,330.80007,425.479864,14.605596,64.920957,3.954544,0
7.45798,183.46131,14733.458757,7.475273,335.668046,482.63718,8.963254,82.581338,4.497731,1
7.973308,237.497153,23517.681011,5.354516,283.583834,478.893616,15.259598,53.671478,2.826112,1
7.085849,196.613413,22303.87247,7.246982,336.703255,418.348293,14.314676,66.319141,3.999941,1
7.214471,194.512887,22342.604263,7.1293,336.970611,422.173706,14.547165,68.250598,4.011061,1
7.140507,196.061847,21179.873308,6.968542,333.295029,431.20734,14.414457,63.979615,3.932024,0
7.081298,195.830105,21447.913431,7.08203,335.391247,427.929403,14.168965,66.135285,3.991611,0
7.03441,196.41965,21382.300595,7.176708,333.422628,426.524134,14.341317,65.615165,3.969745,0
7.009021,198.057693,21577.391747,7.178492,332.318015,422.937204,14.184973,65.840185,3.999947,0
6.926813,196.056403,21764.996787,7.065941,333.841028,428.936471,14.252098,64.702826,3.929344,0
7.194789,193.697387,22817.746879,7.180238,332.811064,415.282452,14.64218,66.090661,3.971673,1
7.089916,198.091935,21791.652239,6.924412,331.780885,425.152509,14.360458,66.09266,3.997015,0
7.048829,200.312974,22314.704222,7.191635,334.230287,419.470968,14.470811,67.341504,3.961233,1
9.338235,248.376016,17416.80178,6.665873,342.720808,505.677409,19.742815,58.65853,1.872573,0
7.164351,197.831234,22920.332628,7.053766,330.613394,427.945278,14.143026,67.401828,3.975595,1
7.095182,196.70653,22126.743087,7.069162,329.531603,427.405908,14.484172,66.261703,4.035895,1
7.154798,197.276434,21659.610541,7.14455,331.212551,423.555614,14.120539,65.696163,3.958931,1
3.445062,207.92626,33424.768678,8.782147,384.007006,441.785876,13.805902,30.284597,4.184397,0
7.186427,195.243671,21635.05136,7.075931,333.287372,428.711856,14.397864,66.068349,3.993811,1
7.079158,199.163852,21344.775792,7.12356,334.704453,426.99839,14.769477,66.116865,3.982517,0
7.041574,196.317261,22119.668179,7.160844,334.058042,430.957542,14.396938,66.885566,3.883443,0
8.663975,206.923164,29551.334148,6.030276,339.032266,329.710839,9.139903,63.765761,3.689241,0
7.228956,194.836714,21410.405792,7.190798,337.086408,424.687725,14.265157,64.220347,3.930773,0
3.730128,230.299455,16892.895662,6.997172,323.520471,456.905704,10.342146,47.095506,4.943032,0
7.174778,197.430757,22239.715763,6.904436,334.439257,426.003718,14.500917,67.000602,3.994437,0
7.040757,194.089657,21672.963058,6.987722,333.13054,422.624442,14.569389,66.71161,3.973808,0
4.902159,214.643756,28278.789276,9.915647,337.137553,375.036369,15.503144,61.591036,3.499049,0
7.141714,194.739188,21285.611342,7.142205,333.257969,421.851367,14.092281,66.717351,3.96341,0
7.000391,197.366661,22452.369402,7.199605,333.825189,428.22475,14.164757,65.78781,3.960376,1
7.06527,195.125451,20710.736585,7.119081,334.420382,426.357309,14.399162,66.047397,3.973609,0
7.073227,195.779071,22368.58343,7.204775,330.832055,422.943936,14.407141,66.830035,3.959727,1
8.268308,168.68789,13181.673516,6.383226,298.307093,294.298065,12.366424,79.206473,4.405408,0
9.612899,94.908977,16598.577511,9.143046,311.296157,535.698701,12.312032,67.426955,4.01641,1
7.079223,196.762464,21493.304089,7.127087,334.572642,430.973647,14.4495,65.532209,3.977746,0
5.548125,217.018259,34006.768745,6.647425,331.402947,430.269664,15.647036,64.980642,4.599236,0
7.201554,193.886272,23011.258372,7.219467,331.433831,426.112283,13.97306,66.513494,4.007828,1
7.904053,217.771631,23575.99143,7.493024,279.146683,548.155383,10.329558,65.180543,3.13728,0
7.136961,194.910518,22464.297786,7.0905,330.989339,425.854122,14.02972,67.201728,3.976056,1
8.903734,194.216275,13319.495705,5.566896,323.424362,317.349244,17.130158,61.428791,4.36517,0
5.716756,197.10421,12641.527809,8.702061,287.012564,345.083936,17.273966,58.411515,4.080675,0
7.025504,205.400529,21884.538515,7.276065,304.732203,442.40554,15.843744,65.580338,2.941555,0
7.037789,194.689003,21925.439213,7.090692,333.172691,423.569089,14.371308,66.478217,3.888638,0
10.667364,173.381945,28912.202201,7.071294,276.634391,286.063394,17.685651,55.147364,4.135569,1
7.085631,195.091171,21174.642642,7.040477,329.98489,421.7547,14.27373,65.864442,3.952323,0
7.092737,191.543164,22440.327036,7.063958,330.182079,417.761212,14.259835,66.686287,3.967159,1
7.131375,196.522974,22045.72383,7.096518,331.522853,423.083165,14.375532,66.773588,4.002014,0
7.208124,197.513841,22008.408422,7.167695,332.440166,433.612542,14.255171,66.628803,3.994973,0
7.087985,198.662849,22383.026149,7.163494,331.112341,414.993399,14.347113,67.156982,3.97953,1
7.06702,195.661146,22108.833053,7.236156,330.144329,427.222341,14.284804,66.359753,4.020823,1
7.170976,195.200874,22318.579972,7.177819,331.872097,426.421091,14.123618,65.738425,4.025117,1
7.121634,198.185874,21395.577998,7.152564,330.168396,426.036833,14.205821,65.990381,3.978011,1
7.107492,197.931833,22888.052561,7.031658,330.75001,418.865883,14.468873,66.02473,4.033784,1
10.111977,240.4321,15331.302692,5.392651,361.902926,403.04181,16.131124,61.111146,3.425763,0
7.05874,190.900076,22618.830446,7.063922,329.835516,426.485533,14.465587,66.398416,3.956469,0
7.185686,195.35011,22226.609623,7.258997,330.670883,429.922325,14.004854,67.69576,3.972649,1
7.52668,192.167096,38468.413584,6.616368,290.64174,449.317534,13.055894,58.768613,4.148223,1
7.250951,195.560725,22106.87313,7.09913,333.109737,431.024618,14.030365,64.607809,3.893125,0
7.0425,196.92728,21940.168406,6.998566,333.604062,423.876539,14.379814,66.365073,3.908678,0
7.02013,194.346409,22448.084779,7.136869,334.432796,426.587434,14.551165,66.241425,3.976738,0
7.026579,194.93275,21693.172468,7.223384,333.077438,424.147379,14.40373,65.533402,3.955901,0
7.134788,196.170541,22890.603049,7.18926,332.611951,420.028538,14.111005,66.288459,4.048903,1
6.94064,195.613906,22008.75655,7.060005,328.201561,431.139634,14.522731,67.365593,3.927888,0
7.169841,197.818525,22396.112039,7.108645,332.256552,425.267842,14.229392,67.586186,4.000449,1
7.189191,194.855738,22126.7247,7.157292,329.327431,425.68682,14.459244,66.647588,3.961469,1
7.050242,194.806819,22428.991004,7.000982,332.421,430.288165,14.586982,65.754626,3.940323,1
6.986628,199.055344,22616.266996,6.975935,333.522697,428.406427,14.41586,65.727022,3.885515,0
7.030758,195.622392,22585.960812,7.208796,332.03698,424.095693,14.35202,65.579765,3.994971,1
7.168376,194.287488,21051.152409,7.182877,335.867637,429.248016,14.254741,67.355199,3.906959,0
7.164556,196.581468,21252.152378,7.000797,330.323014,424.593669,14.36388,66.420451,3.883963,0
7.14484,196.42206,22254.740201,7.107051,337.216765,430.801944,14.338054,66.958665,3.973164,1
7.06165,192.804268,22001.313383,7.179516,328.53887,419.499156,14.235836,67.060761,4.043988,1
7.118812,196.439757,22596.15729,7.135081,331.239225,423.142681,14.176745,66.882961,3.911112,1
7.040699,196.273714,22903.287195,7.271423,329.006596,427.362492,14.294344,66.167365,4.09425,1
7.103348,249.589359,4425.42644,8.211762,293.078666,268.44085,18.422985,68.474194,4.417194,0
7.03666,193.495133,21652.596394,7.099071,335.568609,430.403185,14.311633,64.666074,4.03283,0
7.171158,195.707501,21838.922693,7.034702,332.90977,425.995173,14.49369,66.703897,3.917307,0
7.188356,194.440953,22361.719005,7.233479,331.744671,422.926731,14.336952,66.551792,3.99903,1
7.130047,194.312733,20993.455157,7.127351,334.939403,426.73735,14.350488,67.247935,3.989037,0
5.483974,166.161837,21144.975258,7.607611,322.733094,306.355904,14.17101,64.136528,4.063614,0
7.116036,195.181082,21998.267433,7.206431,331.351418,426.170611,14.084363,68.099065,3.961092,1
7.104007,194.124299,21609.05347,7.076907,332.069958,430.320175,14.332313,66.214186,3.930232,0
6.997172,196.503218,21507.731769,7.067353,331.539744,425.845406,14.269828,66.670698,4.067317,0
5.495976,150.534519,18333.632664,7.471728,416.888527,300.358972,12.300193,55.706781,4.901038,1
7.249257,223.70354,24311.905794,7.392517,275.622487,306.782231,9.697257,77.199646,4.361486,0
6.994074,196.32492,22358.192258,7.223206,336.523939,425.113515,14.145498,66.96182,3.956854,1
7.104784,198.027751,21721.447614,7.140448,330.212572,426.423832,14.081905,66.30805,4.047148,1
7.148026,197.844469,22265.627527,7.177228,329.90274,419.876354,14.350641,65.899325,3.930226,1
7.118973,195.736693,22382.904574,7.038949,327.181343,426.54196,14.40675,67.352139,3.947488,1
7.149973,195.634343,21213.571892,7.149699,335.674589,422.361107,14.106592,64.605301,4.022986,0
7.092307,198.225407,22092.56968,7.367831,330.99072,429.62278,14.20327,66.210139,4.003054,1
4.758648,203.537832,23603.065417,7.667128,324.084334,288.912457,18.064957,85.916666,4.405509,0
7.062954,195.94702,21897.856215,6.957156,333.841633,430.056621,14.264769,65.440807,3.939122,0
7.099225,193.897994,21342.992926,7.040443,331.972911,429.523774,14.320829,66.10469,3.973804,0
5.363363,179.91138,27045.929958,6.520855,311.467406,408.922517,9.704704,79.484801,3.871372,0
7.243083,194.526924,21923.987819,7.095114,333.400279,423.472462,14.003451,66.635049,3.934694,0
6.99515,193.397487,22380.958807,7.214161,328.761082,427.692344,14.211406,67.276112,3.99941,1
7.115895,193.706745,18463.883662,4.924389,319.056951,369.534034,14.84158,54.437494,3.736021,1
7.019163,196.790621,21099.172335,7.044058,337.03008,428.660577,14.234535,64.811682,3.959198,0
6.932919,197.187015,22477.44077,7.116663,331.305456,425.075332,14.236633,66.219785,3.98455,0
6.001382,186.884422,22554.830087,8.391883,331.214867,444.891044,4.466772,65.954766,4.03672,0
7.20242,195.47096,22190.161176,7.019219,334.461664,426.962402,14.109947,67.526099,3.996945,1
7.145866,197.206773,22496.967727,7.192113,331.257653,429.540345,14.204729,65.319468,3.982698,1
6.430255,207.579402,26855.105611,7.08791,304.173434,418.419471,17.921141,34.816398,4.805792,0
10.272444,163.624623,18894.852394,10.068205,269.646656,446.450725,11.856914,82.445503,3.179885,1
7.013136,197.938899,22477.945945,7.081429,337.446083,426.556216,14.422176,66.995637,3.953015,1
7.057756,194.71039,23124.27934,7.143062,332.741019,428.091665,13.945329,65.665606,4.02663,1
6.918477,199.876861,22157.704786,7.01748,335.752752,427.195286,14.52784,68.548183,4.007206,0
7.183257,194.890095,22302.452089,7.077902,331.315122,426.134484,14.285941,65.370469,4.060906,1
6.98634,195.834191,21319.734466,7.077347,335.868507,423.4236,14.462675,65.741512,3.946992,0
7.072017,196.397716,21917.421093,7.11425,333.090094,426.339016,14.296488,65.775534,3.957869,0
7.033768,195.906415,21098.995644,7.062235,332.374578,423.080214,14.512097,66.988681,3.904904,0
7.12768,197.061173,21932.102271,7.05068,334.619938,427.315851,14.555307,66.056113,3.961325,0
7.144752,197.126805,21966.339796,7.07088,335.813532,424.390371,14.440273,67.352074,3.972131,0
7.290767,193.863548,22170.044811,7.137632,335.007678,422.346528,14.493954,66.367695,3.977384,0
7.195973,200.80615,23372.965137,7.349056,329.75971,420.204002,14.524202,66.039644,3.909149,1
7.048812,197.298306,20976.969652,7.111482,335.970972,429.207697,14.417914,66.450867,3.962015,0
7.111774,199.915963,21439.924892,7.070249,336.176915,425.069313,14.327465,65.298392,3.955428,0
7.001617,195.64829,21135.557864,7.103406,335.580789,439.204709,14.550149,64.618277,3.978017,0
7.033801,193.938316,21761.493849,7.04348,334.623616,432.564669,14.240834,65.388735,3.899821,0
7.14487,194.521483,21504.64083,7.05864,328.44715,426.9237,14.208834,65.309149,3.977949,1
6.032189,200.420756,32882.155943,6.516519,352.018638,349.982173,14.104821,43.376808,3.423832,0
7.213559,196.976871,21842.906638,7.268969,331.959881,423.423601,14.366428,67.519315,4.026153,1
7.06884,192.885688,21684.527376,7.134152,331.518683,428.929775,14.590947,67.872433,4.032921,1
7.109879,197.956349,22362.073918,7.273548,332.753169,430.954012,14.120289,66.740972,4.010241,1
10.15544,300.292476,12652.362979,6.655126,398.647786,487.459131,9.347634,67.919789,5.002467,0
7.007669,198.409272,22313.211165,7.037826,331.662758,421.403665,14.264915,66.271596,3.974632,0
7.187237,196.415052,22532.434098,7.045659,334.636582,433.675917,14.280162,66.812034,4.011853,0
7.012379,194.849152,22482.719392,7.213687,329.780063,422.816876,14.075507,65.009575,3.981938,1
6.624944,185.410933,16360.566298,9.472845,320.846507,458.923977,12.488007,40.959974,3.546696,0
7.03123,197.611206,21263.814159,7.062825,332.143348,425.274029,14.475328,65.969124,3.92783,0
7.146636,195.867785,22419.428852,7.28849,330.872463,428.216131,14.157682,65.909827,4.005314,1
7.176123,198.286159,22040.101985,7.10301,331.786571,432.498793,14.27561,66.182001,3.94502,0
7.195837,194.673929,22024.408375,6.962375,335.310216,420.811559,14.365392,66.592078,3.952279,0
6.836225,166.742962,24293.172663,6.861235,332.881582,390.804955,16.006991,87.101925,3.666614,0
5.756476,171.971804,8086.825999,7.304628,330.133777,442.758756,11.364751,95.898495,4.002082,1
5.768868,184.395003,31155.98882,8.392834,356.552697,380.09681,10.43034,100.231668,3.092626,1
7.065522,196.763128,21967.101513,7.10242,337.095516,424.497181,14.337533,66.225117,3.950633,0
6.901857,198.715766,21479.971946,7.029565,335.046767,430.492162,14.475283,66.516872,3.97556,0
7.190963,195.30716,22824.514382,7.24498,326.916935,425.901043,14.426507,67.474346,4.031498,1
7.075419,194.842876,21735.759244,7.169063,330.052555,429.072754,14.45261,67.305326,3.970244,1
6.838817,196.196213,11877.236649,9.624699,365.34884,363.803476,14.924058,41.121382,4.776536,0
7.155811,193.795755,22041.95272,7.061062,335.141767,421.607889,14.136322,65.563057,4.052297,0
7.048953,197.723133,21551.48802,7.114159,334.944118,429.543661,14.353715,66.336468,3.921785,0
7.09368,194.84368,22656.561449,7.056382,330.172003,425.640529,14.350337,66.83241,3.972774,1
5.258415,210.929495,29228.334683,3.833902,341.640695,363.570795,18.065015,36.152103,3.730793,1
7.108235,196.426542,21820.237348,7.208708,334.493726,431.00652,14.723827,66.568219,3.944427,0
7.031684,201.002106,24510.507558,5.818274,401.268832,371.616397,12.846819,89.192433,4.422183,0
7.012089,196.461346,22193.594215,7.165459,331.958832,424.294243,14.175373,67.424777,3.951755,1
7.02846,195.632873,21787.225245,7.035772,333.695071,424.438917,14.585499,67.484627,3.96043,0
7.148959,192.9793,22015.541873,7.367849,333.119951,430.458459,14.259584,65.686249,4.026402,1
8.075495,195.804996,29483.601854,10.493841,298.737219,321.748339,9.751086,72.734423,3.68292,1
7.170927,195.526242,21648.206306,7.085134,332.576026,430.13066,14.312902,66.411723,3.961147,0
7.197203,191.604421,22386.579799,7.254994,337.631124,424.212705,14.521992,66.450742,4.000635,1
7.037131,197.282484,21572.373523,7.038257,333.434383,430.339162,14.391785,66.082265,4.012506,0
6.991142,196.40027,21867.03423,7.115625,330.457608,431.445039,14.19136,66.594964,3.877662,0
7.044375,229.603173,12575.279627,7.837778,390.467684,558.176592,15.754785,36.26753,4.276699,1
7.017908,194.307934,22852.221323,7.074258,335.729196,430.119789,14.087334,66.520372,4.01591,1
7.13857,194.79563,21999.429991,7.045578,334.310635,427.537022,14.399666,65.87658,4.001222,0
7.118949,193.898079,22133.754228,7.066664,332.949231,425.615432,14.532439,66.278469,3.956982,0
6.905836,196.108274,21652.759563,7.251886,336.551231,423.857219,14.331643,64.713993,3.850102,0
7.107265,199.799737,22187.423825,7.070243,334.474256,426.189249,14.284676,65.63862,3.933525,0
7.182273,197.442619,21352.173682,7.12733,334.466419,421.232642,14.265845,65.990805,3.949787,0
7.184698,189.758396,13317.468112,7.83232,378.675456,541.306097,12.492179,41.696183,3.904063,1
7.177865,193.941309,22301.994015,7.222407,333.244561,429.329871,14.352518,66.287283,4.032425,1
7.050494,195.737565,22124.855918,7.180089,334.404362,424.39728,14.575972,67.136628,4.0178,1
7.06259,195.335466,21666.945679,7.06676,336.566618,430.29763,14.386585,65.501653,4.03062,0
6.990092,195.852777,21118.012122,7.209901,333.428002,430.259783,14.304878,66.18951,3.996687,0
7.058225,197.31087,22363.90359,7.251346,334.544417,425.665446,14.140166,67.619332,3.965931,1
7.0168,194.339919,21754.595785,7.16093,332.634774,422.956191,14.235326,65.542984,3.92871,0
6.588007,244.94322,23898.974477,6.780936,273.736644,330.91482,9.250628,47.38874,4.216454,0
7.135433,197.021362,22533.133844,7.302302,330.448612,427.698326,14.390812,66.356017,3.969652,1
9.502857,175.585673,4466.257488,6.416459,370.851893,406.309854,13.754221,57.438275,4.237345,0
8.350351,239.816005,17177.788783,6.108947,272.844715,294.876056,10.603467,62.852749,3.507228,0
7.172504,197.997013,22152.945284,7.241028,334.251835,423.968306,14.012825,65.84193,3.993101,1
7.068566,195.951743,21900.09712,7.211783,331.685955,423.292753,14.345302,66.462138,3.921261,1
6.907235,194.964779,20972.166857,7.120219,332.522304,421.418492,14.15614,65.3671,4.043213,0
7.012073,196.986279,22501.685665,7.255858,330.44554,422.486296,14.311523,65.867201,3.989275,1
7.012413,198.497958,22148.314585,7.128296,332.86852,427.187807,14.439336,66.331572,3.920859,0
7.002894,195.110999,21658.656906,7.070863,331.523326,427.580761,13.995939,67.155578,4.015085,0
6.901096,196.855212,21619.906278,7.002481,332.590027,429.916097,14.0723,65.644169,3.934685,0
7.126421,195.799193,22121.348789,7.127043,332.066085,428.056014,14.559079,64.887042,3.874132,0
7.159543,193.94541,21211.155518,7.196934,334.154821,424.483035,14.477576,67.529514,3.964166,0
7.203954,198.820707,22392.897333,7.170505,332.827705,429.577575,14.165821,66.681654,3.943017,1
7.212813,195.01592,23088.18598,7.101657,334.861534,425.899958,14.438472,66.474584,3.979698,1
7.072939,195.68765,21266.46998,7.147227,335.615518,424.050134,14.535358,66.180107,3.930571,0
7.200271,197.05994,21917.188314,7.02161,330.024556,423.18335,14.594285,65.85284,3.902202,0
7.122434,194.55384,21428.241419,7.020589,330.34076,426.066073,14.355476,66.462668,3.972655,0
6.992106,195.032354,21176.907004,7.136126,332.89523,422.958584,14.512623,66.079456,3.915499,0
7.193188,199.39163,22160.812289,7.174787,327.972758,430.810106,14.292673,67.189999,3.989823,1
7.109637,196.572376,22278.108574,7.201305,332.620954,426.06715,14.292442,65.539409,4.030379,1
7.035213,195.351973,21786.173015,7.211161,333.765754,424.102914,14.219637,66.928088,3.925593,0
7.007198,191.691951,21495.02224,7.067124,333.324244,425.777432,14.312422,66.789707,3.99743,0
7.062624,192.210279,22767.889035,7.354891,332.14364,419.685981,14.130597,67.140824,4.029758,1
7.062077,196.854734,22304.963366,7.136696,332.502721,430.882574,14.379909,65.316255,3.925915,0
9.271669,256.273393,26912.228417,5.76678,274.646117,467.752318,12.376686,89.90495,3.744204,0
7.037924,196.015885,21676.460552,7.212177,333.782119,434.2684,14.511686,66.799424,3.896227,0
7.004722,197.786289,21931.157098,7.077848,333.80245,420.398244,14.402689,67.802873,4.021457,1
6.94598,194.819835,21095.019413,7.124373,336.798738,429.114695,14.339199,66.461255,3.941098,0
7.187483,195.56898,23173.685906,7.312686,333.026253,421.332054,14.542775,65.620197,3.995311,1
7.196514,197.036695,20766.005924,7.121007,338.198776,434.963657,14.602964,66.827712,3.948244,0
7.171392,195.467105,21328.320761,7.333149,333.884751,422.503906,14.122763,66.505702,4.006375,1
7.181625,198.087887,22199.340209,7.056378,331.742077,426.591616,14.201898,65.915151,3.97378,0
7.040362,194.613598,21126.356221,7.131422,338.373033,426.367759,14.618659,64.704034,3.980717,0
6.987858,195.075848,21341.426007,7.119634,336.742224,424.532343,14.302148,65.52921,3.98129,0
7.093928,195.970026,21525.224434,7.106347,334.615764,426.519771,14.295487,66.468605,3.932614,0
7.227631,194.410928,22678.047113,7.140981,329.574504,430.50727,14.432921,65.991119,3.899598,1
7.180981,197.153491,22372.67056,7.134757,333.751661,414.573335,14.161407,66.584981,3.967821,1
9.540252,224.054582,31683.864593,11.99429,315.359085,493.836379,19.093599,81.393722,3.329504,1
7.14073,196.558294,21528.442685,7.167539,332.215962,421.825311,14.054946,67.09126,3.96721,0
6.977685,195.475097,22679.891854,7.138669,333.003152,429.569954,14.222896,65.522637,4.04539,1
7.169261,194.835899,22094.634583,6.973697,335.293514,426.852155,14.402845,67.696156,3.895292,0
7.070688,197.530383,21653.603125,7.165557,333.981135,430.161339,14.642146,66.156749,3.964063,0
7.089497,194.913591,22354.37354,7.152299,334.608299,427.95541,14.352979,66.594052,4.016627,1
7.057633,196.477857,22666.882646,7.064261,336.269237,427.536051,14.170946,67.098522,3.962615,1
7.0917,193.864264,20969.500847,7.177108,333.558635,431.096417,14.28352,66.014874,3.970996,0
6.978916,195.455751,21266.025555,7.000923,331.883375,421.351003,14.308427,68.339158,3.897895,0
6.981508,195.589687,21566.079805,7.122549,330.444626,427.670428,14.408219,66.367673,3.912475,0
6.992104,194.914543,21612.502299,7.053073,333.901206,427.539502,14.265432,68.063844,3.9421,0
7.090045,196.604301,22379.169278,7.139482,334.784376,419.049834,14.505562,66.534606,4.001317,1
7.042791,196.302727,21706.831975,7.297741,329.282792,427.401039,14.247018,66.794503,3.95764,1
7.074605,195.292434,21907.398636,7.11938,331.065567,430.524027,14.13579,67.263919,3.954769,1
7.162323,192.585155,22226.279131,7.03863,334.480062,432.752391,14.515359,65.323241,3.949905,0
7.182822,195.102738,22414.699964,7.195996,332.49152,422.815442,14.235351,67.231188,4.020058,1
7.132406,197.54028,22261.783182,7.073859,332.799843,429.071832,14.201638,66.006809,3.986539,1
7.064764,194.73392,21189.389344,7.023552,333.128035,425.831055,14.538983,65.828555,3.962194,0
7.051508,196.462338,21610.651376,7.077893,334.314464,423.691317,14.137466,67.392982,3.904056,0
8.610963,125.15877,32079.774815,9.844921,264.052839,342.205252,12.947376,53.950269,4.6144,1
7.101003,197.551072,22339.17479,7.253351,331.963678,426.056895,14.137507,67.079855,4.042327,1
6.971637,197.258235,21492.896272,7.121288,330.041097,423.155011,14.558023,67.012592,4.055805,1
7.076131,195.578679,22421.307468,7.304524,330.902657,424.194133,14.371029,66.691822,3.989392,1
7.819659,225.106836,16403.952381,7.09331,313.168134,413.208949,15.375616,32.681851,2.402337,0
7.122515,197.952094,22326.491862,7.147094,331.687602,426.519979,14.102587,67.767635,3.925772,1
9.894562,128.585733,26436.033327,8.778717,349.748446,480.667616,9.105813,65.32733,4.617533,0
7.069671,199.760375,22204.636981,7.05461,331.736471,424.950468,14.474664,64.190322,3.933529,0
7.021098,193.151013,22407.589516,7.173942,332.840286,423.556961,14.288268,67.161791,3.948426,1
4.300029,218.319886,17639.85794,7.527317,331.834632,424.2094,15.005737,70.050831,4.586448,0
7.082759,194.184316,21941.177968,6.967656,329.226718,429.354935,14.377372,65.655334,3.979021,0
7.138769,196.724326,22739.311282,7.165007,331.999558,427.479238,14.353584,66.597346,3.979379,1
7.168928,193.836463,23182.757763,7.291359,332.641057,429.973612,14.217293,67.744702,3.931951,1
7.075691,197.220526,21452.942298,7.038179,331.134944,428.888534,14.701732,66.107437,3.934093,0
7.036752,210.369104,13812.410421,8.378282,342.498361,489.545055,14.823904,69.193358,3.285372,1
8.322987,207.252462,28049.646283,8.827061,297.813085,358.725869,18.709273,60.91142,4.052136,1
7.157109,196.113338,22138.487852,7.158228,334.049064,431.442801,14.306691,67.749086,3.922026,1
7.158709,197.13413,21778.452207,6.991408,333.087198,423.354115,14.416183,64.906064,3.966188,0
6.90738,210.27921,40290.221636,6.874702,294.015198,340.704978,18.253472,84.022119,1.496101,0
7.07371,194.983478,21847.079908,7.145971,327.627518,430.626351,14.295132,66.251037,3.983486,1
7.052537,195.269286,20868.502496,7.115126,334.010001,422.510986,14.431452,65.515633,3.908474,0
4.01659,255.616569,28612.266107,7.340595,290.690661,442.385118,9.305733,71.342132,4.417134,0
7.209573,193.391342,22737.625471,7.112154,335.802532,425.304535,14.430353,65.72454,3.997001,1
7.043732,193.322964,21321.967167,7.069603,332.466076,428.300381,14.585045,65.464062,3.974424,0
6.9137,198.369438,21439.72271,7.143155,334.317189,425.689302,14.54662,67.198779,3.999288,0
7.171769,196.517404,22502.684293,7.291743,331.403173,426.140422,14.212213,65.338607,4.017378,1
7.137044,197.469942,22151.673803,7.159253,338.636808,433.620959,14.329191,66.113677,4.009173,1
7.058951,196.66004,21808.273234,6.992314,332.555508,425.145963,14.754824,65.829807,3.944788,0
6.951456,198.587042,21509.346682,7.188458,332.771082,427.096309,14.504733,65.711261,3.929706,0
6.93127,198.367821,21637.63379,7.032499,333.519099,426.997179,14.616225,66.193828,3.976014,0
7.035801,197.46938,21855.259853,7.113577,334.503568,434.076866,14.42193,65.091268,3.955712,0
7.128647,193.023351,23019.973489,7.143504,331.66257,422.628752,14.136841,66.67402,3.962861,1
7.094649,193.918132,22298.287227,7.322816,330.085491,426.262675,14.377497,66.877629,4.009098,1
6.978706,195.813451,21982.63143,7.116443,333.172877,429.921494,14.516181,64.320134,3.864487,0
7.136407,196.209373,21402.315781,7.091737,331.303065,426.677766,14.146729,67.359166,3.944287,0
7.011928,195.420147,21706.096758,7.071067,330.377701,429.494319,14.42876,66.073659,3.920827,0
7.175941,192.985698,22478.11036,7.103943,335.443471,420.523387,14.228228,65.674375,4.001031,1
7.036572,196.868508,21605.814558,7.10715,334.158193,429.421776,14.575984,65.866917,3.94046,0
7.01872,199.493322,22033.478858,7.114562,336.009466,429.627185,14.433099,65.652917,3.928355,0
7.165758,194.878937,21340.588019,7.108516,337.396168,424.941641,14.564998,66.84797,3.99458,0
6.888843,188.920671,27368.014339,8.003187,355.478563,465.346979,12.377083,75.112494,4.512332,1
7.110212,194.153537,21528.2548,7.207157,330.205789,431.019531,14.380151,66.2996,3.945651,0
7.157873,193.956496,21749.086508,7.082727,334.561685,427.640957,14.374444,67.128225,3.959647,0
7.137497,196.947738,22561.748843,7.047038,329.712162,425.576172,14.258283,66.755571,3.978586,1
7.045039,195.91978,22593.283438,7.188585,332.643611,430.162085,14.262684,66.135077,3.970854,1
6.989787,196.36517,21255.450936,7.099515,330.547905,437.604209,14.262383,65.800839,3.948636,0
7.255942,196.820408,22613.080619,7.187647,331.476621,424.962792,14.057794,66.46926,4.006434,1
10.391942,262.74177,39116.682706,3.205786,285.72842,473.313969,13.300688,65.318816,5.771715,0
7.085352,195.292853,22081.427289,7.148437,331.735542,425.934985,14.378024,66.104788,3.970243,1
7.092638,195.105646,21726.20679,7.058799,333.754783,430.585915,14.136829,65.922597,3.937259,0
6.124847,151.691358,15092.017645,6.610788,382.318961,388.137531,16.621959,69.167847,4.211968,0
7.421998,220.385314,15772.65317,9.157615,319.912939,463.296914,16.98166,80.269354,3.60361,0
7.042428,196.920513,22360.968492,7.318472,331.15761,422.16365,14.301818,67.033713,4.035565,1
7.076648,196.067146,21804.653713,7.060005,330.764044,422.108263,14.060846,68.008255,3.949106,1
7.044188,194.439992,21740.144317,7.055503,331.703867,429.241916,14.251577,65.069128,3.972771,0
5.694476,193.43213,18742.925222,6.556668,327.002371,448.754151,13.623308,56.326497,4.107467,0
6.492627,213.065385,34314.087091,9.041146,335.291926,313.254743,11.135312,70.82911,3.378778,0
7.128258,194.385982,21947.612241,7.143702,333.779948,429.059744,14.278625,66.051604,4.024785,0
7.159551,194.658061,21620.438197,7.069461,337.963182,429.256798,14.386909,65.675549,3.982574,0
7.126139,196.260611,21804.53825,7.15596,332.31653,429.316826,14.23799,67.687387,4.060378,1
7.186778,195.037463,22336.233338,7.19182,327.02514,425.551215,14.333581,67.665846,3.975147,1
7.130626,196.898032,22194.810041,6.974487,335.943815,425.106629,14.559179,66.187304,3.914222,0
7.12134,198.938422,21839.820049,6.932815,333.136835,432.054495,14.19682,65.880157,3.86742,0
7.312109,199.812999,14540.735082,8.827414,276.118282,486.983734,17.271656,70.135608,5.123872,0
7.080455,196.925343,22082.182527,7.37256,333.521186,426.738613,14.35966,67.426726,4.019997,1
7.01804,200.234022,22170.100148,7.170452,331.333885,419.561502,14.330447,66.56655,3.939412,1
7.162504,195.842612,22298.322265,7.219309,337.698547,421.134704,14.593966,67.044272,3.95694,1
8.990317,195.809028,23728.294015,7.508305,348.714613,551.54039,15.254392,75.907869,4.494544,0
7.097041,195.138949,22130.114945,7.034749,333.764533,428.26884,14.776877,66.064546,3.935595,0
7.079241,197.416984,21947.579714,7.086417,334.108517,428.699277,14.517107,66.794808,3.979687,0
7.207265,196.603364,22897.33907,7.269149,332.854593,428.577649,14.419286,66.215748,3.913721,1
7.126148,196.372375,22142.875936,7.275077,331.196324,421.97824,14.320902,67.30303,3.869927,1
5.090035,174.266357,34094.057177,6.741909,376.663608,526.361082,17.107563,48.546257,4.838862,0
7.086843,197.073603,21459.86894,7.121165,334.690383,430.089235,14.317743,66.503057,3.908218,0
7.00393,194.491491,21994.709206,7.100471,331.742889,421.847086,14.538014,67.815089,3.913368,1
7.01245,194.87652,22880.932639,7.056559,335.949171,422.945017,14.365466,65.96474,3.96619,1
6.957434,214.380139,15007.421534,6.99716,328.81876,468.555062,17.407261,104.207104,4.89205,1
8.082148,185.932419,28407.661026,7.605421,381.761884,402.658022,12.830646,86.979724,3.373485,1
7.112371,192.322837,21641.572312,6.922015,334.432255,427.364211,14.347494,66.089712,3.895332,0
7.146976,196.562685,16911.203773,6.890505,320.100875,520.111358,12.854239,66.814176,4.025762,1
7.082216,194.669526,22220.116969,7.10404,337.29811,424.844382,14.31449,66.632551,3.950655,1
7.123038,198.515897,21747.423485,7.204351,332.476633,426.422633,14.075375,64.819846,3.957535,1
7.125839,195.840173,21383.172097,7.051492,330.826036,426.931663,14.387503,66.095895,3.975902,0
7.022827,197.568117,21842.834089,7.100447,332.905107,423.02225,14.387021,66.560146,3.930366,0
7.028198,196.482748,21500.121307,7.093843,334.332367,425.577704,14.602795,67.749999,3.931445,0
7.150893,197.847994,23488.610297,7.211144,329.474148,426.359879,14.439215,66.720955,4.038899,1
7.154247,194.889436,22611.674202,7.03158,334.125261,425.099639,14.285263,68.035318,3.978541,1
8.291299,211.217034,20008.134957,8.767875,275.767321,475.90913,12.614669,66.612984,3.424702,1
7.130526,197.50223,22442.13987,7.047746,326.916514,421.910039,13.980028,66.646097,4.024123,1
6.260111,211.594112,18577.623969,7.154891,340.792574,357.098395,7.99221,82.365378,5.403615,1
7.140665,199.420564,22607.764227,7.107612,336.106493,432.156298,14.210361,66.880885,3.956402,0
7.107599,194.35576,22519.056411,7.21906,334.10598,420.89195,14.435536,67.870732,3.919817,1
7.287622,197.109277,22105.448149,7.035706,332.692025,412.974893,14.651976,66.817679,3.988005,1
7.059839,191.581061,23372.253039,7.084852,335.593889,424.681842,14.48015,65.502971,3.952306,1
5.762552,184.847487,22159.018073,6.302264,347.775154,449.435376,12.950545,65.839742,2.906589,0
7.059942,196.886693,21587.686821,7.076462,333.585973,424.816812,14.62338,66.541988,3.924552,0
7.157526,194.43139,21645.252643,7.37664,334.681044,430.019907,14.555634,67.201771,3.983107,1
7.14105,198.356926,22048.739519,7.165542,329.079647,423.763862,14.422267,66.524467,3.956284,1
7.059126,196.436171,22573.774093,7.202002,331.399237,425.146226,14.27244,66.823346,3.978204,1
7.120383,196.05858,21381.052835,7.005155,331.721035,427.311792,14.365167,65.654745,3.922283,0
7.167156,194.63553,22192.717201,7.222027,335.164119,427.521319,14.193421,66.15083,3.949225,1
7.133323,198.995333,21489.804726,7.133783,333.792809,425.1046,14.552646,65.617165,3.933113,0
7.066478,195.956435,22186.751538,7.074801,331.985207,418.126256,13.955249,66.165304,3.953947,1
6.84833,195.451482,15908.642086,6.241349,319.264722,404.204859,18.937338,75.392795,3.732202,1
5.153489,107.341982,19115.721861,9.296114,333.061939,457.891532,17.445656,77.598804,3.749921,1
6.940442,197.023679,21431.890139,7.042166,334.186679,435.645202,14.41964,66.515106,3.977382,0
7.198199,198.052678,22904.718141,7.362764,331.678354,424.91433,14.28957,67.17341,3.956201,1
7.091979,198.089866,21141.116265,7.321883,331.543998,433.874124,14.493472,65.300633,4.000399,0
7.124045,196.911627,21936.598239,7.284084,329.3877,425.462607,14.108671,68.209291,3.990083,1
7.183096,200.368159,13501.677965,7.982097,358.331849,617.540906,11.176548,71.536834,3.806539,0
7.129343,194.17369,22225.260682,7.188451,331.107944,431.553723,14.309817,66.136549,4.034465,1
7.025739,195.171648,22004.675192,7.224195,329.474447,417.462356,14.21246,66.001069,3.976985,1
7.015242,195.228562,21317.383091,7.26639,330.836945,425.659641,14.529809,68.038105,3.958043,0
7.008346,197.997187,21622.427175,7.101715,332.335819,431.540089,14.405953,65.374988,3.917697,0
7.09182,192.260446,21681.87035,7.022714,335.76442,430.397602,14.193768,67.455927,3.931579,0
6.336343,214.071982,14619.627261,6.584414,315.996793,370.795604,12.219411,83.668879,3.788803,0
7.095554,199.466935,22150.911719,7.198813,329.319031,414.285493,14.264961,66.797164,4.012583,1
7.191139,195.842827,21007.753185,6.823557,331.241133,436.458663,14.540627,64.525736,3.947543,0
7.236319,197.911998,20977.632265,7.129426,331.136292,426.600902,14.569216,66.783487,3.94193,0
7.227907,198.017663,21380.357038,7.08163,337.274765,424.904536,14.157298,65.30217,3.966118,0
6.77105,194.635122,15719.493609,6.746344,339.001575,441.730391,22.891011,75.472825,3.244867,0
7.054834,191.265299,22780.314664,7.238393,330.239578,419.565763,14.287302,65.7407,3.990518,1
7.109847,194.571641,22746.365328,7.121534,333.247682,424.183976,14.28127,68.363068,3.934643,1
7.092396,193.571856,21582.708127,7.141581,334.773417,427.630571,14.250258,66.083874,4.025548,1
7.061502,194.967021,22214.364851,7.066803,332.648955,420.859278,14.480465,65.390023,4.02637,0
8.238997,199.594539,25046.79864,9.28802,350.835986,328.363398,18.743231,54.416965,3.089924,1
7.151147,195.461707,20470.492316,7.039421,336.211899,423.606798,14.48733,67.737431,3.996575,0
7.058816,196.986666,23406.565664,7.181123,332.093017,425.112934,14.157639,68.087692,3.932759,1
7.183423,193.274359,21858.290816,7.239244,334.800633,429.796734,14.35524,65.808126,4.057886,1
8.189363,229.608499,13197.566815,6.007956,334.054289,605.465747,14.861377,103.322855,3.688298,0
7.208043,196.519774,22271.387867,6.879028,329.958274,424.38932,14.20456,67.050022,3.963994,0
7.009658,195.676791,21561.315007,7.127217,334.237898,423.880111,14.353085,65.780304,3.936827,0
7.304274,196.377393,21219.184885,7.013936,332.200092,431.939103,14.540793,66.823236,3.923003,0
6.951782,197.602174,21704.069235,7.25654,332.729869,421.3401,14.295585,66.945612,3.956088,1
7.617014,214.404363,29818.095042,6.508853,298.35185,494.945537,13.310224,70.048007,3.800553,1
6.603417,190.837308,19468.790095,6.375632,380.731901,456.31546,5.934588,83.559326,4.270817,1
7.153375,202.225837,22294.432906,7.15916,333.185228,430.48209,14.479345,67.664261,4.042104,1
7.081123,196.129337,21806.070921,7.357889,330.241785,422.333407,14.396397,67.448142,3.95039,1
7.089311,196.5843,21614.047432,7.073446,333.399087,424.672352,14.386691,68.15765,3.987441,0
7.141156,196.869492,21938.6268,7.061657,336.985878,429.989116,14.254843,66.164738,3.984012,0
6.903817,258.526842,35455.709612,4.881377,206.247229,318.622622,13.96174,65.866679,3.867843,1
7.127672,194.632724,22858.16515,7.042782,327.184661,426.601046,14.240486,67.275855,3.995703,1
7.141616,196.740246,21616.00603,7.139355,338.129374,427.768567,14.44839,65.084603,3.955947,0
7.000922,194.980456,22022.70357,7.000239,336.911442,430.388336,14.228893,66.645906,3.930523,0
7.119711,196.688052,21312.62053,7.084689,331.345074,428.842353,14.290024,65.492703,3.950752,0
7.190252,198.090069,22183.279185,7.054137,332.899234,424.166151,14.181401,67.627537,4.027027,1
6.864925,197.657484,20805.198918,6.995687,335.173102,430.041503,14.437207,64.783654,3.883096,0
5.970036,230.449329,16324.115196,5.293919,315.186121,327.786642,13.325987,39.554249,5.428674,0
8.651023,188.711637,13207.860966,6.834673,335.244783,399.691068,10.689365,43.953313,3.644279,1
6.889191,196.902469,22406.181589,7.018015,333.527422,429.517502,14.320129,65.61801,3.927797,0
7.099786,198.58622,21596.461071,7.104164,330.645344,423.046344,14.272775,68.247274,4.009787,1
7.044936,194.68498,22816.18311,7.077123,334.137956,429.539376,14.667537,66.141251,3.944622,1
7.117371,195.614959,21969.826014,7.103866,333.706919,427.004454,14.155795,66.778274,3.948376,0
7.130882,197.592739,22384.018693,7.362957,329.560636,429.68246,13.976214,68.035502,4.048392,1
7.210188,194.41415,22312.892616,7.144273,335.676337,427.038191,14.576863,66.1102,3.949549,0
7.061582,195.263024,21199.705945,6.994861,332.90676,424.070596,14.425932,66.137529,3.947204,0
7.187728,197.037462,22126.003247,7.199449,332.962953,427.794065,14.63714,66.730279,3.966182,1
7.175066,197.366578,21395.984916,7.091122,332.465695,427.779726,14.657375,65.572952,3.87517,0
7.06751,195.469817,22878.260192,7.147056,333.292133,430.981364,14.355518,68.256845,4.048325,1
6.791993,210.407967,30471.929098,6.614438,326.585846,493.179417,19.985555,61.120143,2.914057,1
6.979307,193.113381,20721.758652,7.033582,336.880157,433.478516,14.453736,65.657621,3.993009,0
6.967271,218.792793,33933.709852,8.97718,360.996941,438.809155,18.633065,71.919217,3.272471,0
6.938505,196.082658,22692.135841,7.078549,332.257094,431.822595,14.338132,65.574746,3.914719,0
7.034638,195.832802,22200.734584,7.167034,332.465356,432.2238,14.519798,64.755085,3.995602,0
7.018344,196.196503,21602.538277,7.133489,336.248212,430.069378,14.502621,67.41125,3.995571,0
7.158795,198.035482,22593.295783,7.30185,330.569762,423.578779,14.096664,65.79901,3.993885,1
7.200159,196.529272,22172.679975,7.146134,332.396841,420.980159,14.228128,66.896108,4.004145,1
6.983058,196.761644,21683.574485,7.15531,337.116732,425.589953,14.555822,65.763585,3.970125,0
8.313774,196.547696,11310.958313,5.310815,364.405067,607.915848,8.457142,76.69458,4.290072,0
7.040705,194.91146,21914.948157,7.130333,333.331061,423.295093,14.297636,66.88444,3.985076,0
7.118404,196.982922,22548.893535,7.308053,331.714433,434.394963,14.235049,66.649669,3.98125,1
7.096236,195.193605,21441.8841,7.240938,332.615217,432.013035,14.483152,67.291642,3.960781,0
7.084845,193.663591,22657.860976,7.314511,332.739586,429.554518,14.264262,67.085381,3.932067,1
7.289712,195.726138,21542.268127,7.262598,335.40661,425.998423,14.339469,67.770832,4.026151,0
7.000234,196.600751,21790.566865,6.911724,335.415027,432.681322,14.375136,65.261336,3.885861,0
7.018829,196.117703,21408.784888,7.126055,334.827008,423.815292,14.388992,67.245093,3.89302,0
6.741246,196.833001,23565.73271,7.594584,315.574602,500.142898,11.663073,31.778484,3.500971,0
7.173423,197.582432,21704.134692,7.2979,333.956506,418.281958,14.269453,66.763138,3.997153,1
7.371914,148.193698,42059.380417,7.96671,324.546262,544.848432,17.166504,62.677756,4.338957,1
6.847863,234.942203,24456.174888,5.596241,334.873046,337.573151,9.515292,77.2973,4.921196,1
7.227574,197.2613,21682.368801,7.222491,329.460946,427.286337,14.433151,67.472004,3.994643,1
7.10915,193.069044,21841.861517,7.250305,333.519389,427.151656,14.145179,68.290664,3.988045,1
4.227537,201.447487,13122.329581,6.932558,374.843538,402.660774,22.823293,76.469426,4.479628,0
7.135697,195.574034,22407.046767,7.161456,330.224243,421.348479,13.972096,66.417533,4.028354,1
7.174831,194.808608,21884.068282,7.065778,330.958146,426.540275,14.377516,66.69594,3.941502,1
7.083718,195.170812,21991.561959,7.003092,333.390015,427.78101,14.456239,64.632119,3.967099,0
7.002464,195.126036,21444.134483,7.128825,337.587864,427.01213,14.548639,65.419607,3.919586,0
7.161715,238.333584,13680.764138,9.27412,284.407842,478.76697,16.836291,74.38358,3.909974,0
8.512781,157.666918,33092.669353,6.765469,305.85557,377.618945,13.309391,43.019427,4.026622,1
7.302796,194.877014,21641.356303,7.140587,332.148505,425.567787,14.175608,67.937473,3.950427,0
7.184417,193.909502,22254.966612,7.207668,336.033066,421.851117,14.104321,67.475208,4.035334,1
7.136628,196.935486,21912.156531,7.12054,331.423249,427.970983,14.321005,66.958394,3.991585,1
7.126197,193.639619,22415.139784,7.181656,331.364161,429.75752,14.663662,65.522613,4.023967,1
7.064352,196.272839,21767.814052,7.116003,325.848467,423.098831,14.657008,67.177474,4.04698,1
7.122092,194.697956,22442.212404,7.190363,333.683004,429.617266,14.208323,67.023864,3.976278,1
7.058022,195.324325,22115.213003,7.141902,331.719969,426.034423,14.638042,67.146186,3.993141,1
7.109596,197.295732,21796.259417,7.089405,335.11776,423.829706,14.488134,66.257208,3.979206,1
6.994327,194.583358,21478.78346,7.126967,332.059677,428.692876,14.68945,65.316661,3.960281,0
7.096088,197.118878,21197.470351,7.176683,337.060771,437.200256,14.589845,65.525829,3.975409,0
6.992396,195.067716,22329.679007,7.171654,329.640479,425.030686,14.39226,66.365375,4.039631,1
7.081527,197.078259,21940.221823,7.156805,329.739503,427.666331,14.361757,66.296777,3.965643,0
7.221689,203.069029,13703.220377,7.823612,352.124567,412.32049,16.125741,80.058877,3.160818,1
7.111268,194.791272,22413.030645,7.322224,327.5483,415.239173,14.142155,66.390963,3.974438,1
7.196838,194.135685,22744.176738,7.147102,332.505823,428.596428,14.085398,65.433008,3.946348,1
7.155823,197.883975,22974.892649,7.189145,325.629734,422.999244,14.296493,66.901165,3.940991,1
7.194032,199.735059,22125.99079,7.263527,331.590345,422.409517,13.840208,64.954924,3.954115,1
6.136907,151.784319,20561.694731,8.487856,384.156079,363.618492,13.713703,96.582865,4.704585,0
7.218079,194.302136,21581.367626,7.072632,330.670098,423.482593,14.536819,68.019418,4.009118,1
7.860106,182.041986,34591.678148,6.187857,287.223779,285.228661,14.365625,74.888422,3.499775,1
7.099015,192.274439,22289.08572,7.338995,328.825853,434.689951,14.315678,66.940612,4.00447,1
7.195961,194.988472,22308.552662,7.373949,332.028741,426.364092,14.063251,67.72322,3.983477,1
7.074452,196.580684,21815.816795,7.19542,331.590838,425.235896,14.37085,67.031285,3.992045,0
7.078361,198.412447,16648.600567,6.931096,348.547981,472.276001,17.249616,59.630894,3.263465,1
7.221786,195.627357,21410.058697,7.01674,337.922834,427.436884,14.21385,65.242922,4.000181,0
7.070854,196.199124,21826.872324,7.021188,332.455018,431.804223,14.406551,65.241108,3.897015,0
7.021914,197.499621,21425.702707,7.065137,334.191558,426.799347,14.436997,65.610047,3.93704,0
7.125331,198.010709,22359.421716,7.182904,329.950121,429.290006,14.399582,68.057642,4.055683,1
7.063669,195.356799,22084.677365,7.011471,333.661186,425.604422,14.189627,67.251225,3.932505,1
7.0286,196.826256,22344.687504,7.195582,334.813952,427.628059,14.238329,66.767884,4.001371,1
6.443754,196.615992,25740.412591,2.48438,435.672765,352.353623,16.924419,33.051888,4.498685,1
7.11551,192.609122,22177.470205,7.208051,332.707991,423.386792,14.179212,66.792227,4.076222,1
7.160813,196.079849,22395.851915,7.004667,335.723381,418.90649,14.230404,66.460883,3.994454,1
6.744799,204.084318,20215.697517,6.125252,304.527937,544.339317,12.014243,72.608076,4.868543,1
7.136103,186.582706,19502.538967,8.095427,305.430011,355.937238,15.64513,73.885612,2.574192,1
7.011614,194.971459,21364.998908,7.099301,334.268114,430.630539,14.374698,66.966792,4.001844,0
7.061287,197.780713,21845.157637,7.192274,332.67067,427.839417,14.326822,68.614684,3.994694,1
7.136795,194.605325,21052.981642,7.109878,333.610006,420.091923,14.276045,67.164794,3.922025,0
5.189414,171.238926,12289.900922,10.7865,301.230848,501.559725,12.284334,54.473935,4.876273,0
7.136481,197.947129,22486.586522,7.133827,333.621108,421.978577,14.102301,66.717792,3.982375,1
7.076052,197.804177,21300.581779,7.142619,331.093259,433.045725,14.38803,65.950658,3.945371,0
7.005821,196.187566,22315.933858,7.032703,333.967091,418.145094,14.490923,65.860458,3.95742,0
7.262479,196.090344,21964.915942,7.006421,332.466763,427.130422,14.255273,65.804576,3.987034,1
7.488133,177.353052,24786.050528,8.613304,369.210671,387.868075,14.149473,48.965996,3.474035,0
7.01409,195.614608,22190.805504,7.393049,332.76614,424.080201,14.004231,65.340403,3.914109,1
7.037822,195.166182,21553.087571,7.073718,334.334408,436.177301,14.200568,65.761406,4.019536,0
7.26212,197.483104,21850.32216,7.047872,333.235754,423.60062,14.23275,66.560433,3.97909,1
6.887416,192.7973,21012.120488,7.112994,336.468595,425.156522,14.436734,67.238677,3.966893,0
7.100854,198.180192,22081.127575,7.074826,335.51253,422.593513,14.623211,67.720414,3.948267,0
7.243204,194.279202,22343.101565,7.215408,331.43639,422.59569,14.326638,66.873015,4.023156,1
7.025337,195.096858,23212.61761,7.16068,330.11577,420.887586,14.031407,67.25217,4.004719,1
7.08745,195.623019,21880.053445,7.064694,336.157351,423.17017,14.48672,65.9582,3.944108,0
7.080993,194.912659,21915.18657,7.183343,333.451506,415.388396,14.422023,66.259805,4.035082,1
7.830608,213.249258,18821.389612,6.475113,316.572415,405.278738,16.872395,55.90577,3.551568,1
7.027629,194.065366,21762.749555,7.055292,334.369274,428.718425,14.388933,65.968563,3.968059,0
7.136877,195.054944,21007.554904,7.153153,334.92767,421.481883,14.27967,66.327956,3.893307,0
7.204097,196.806399,22463.576749,7.325696,335.145681,431.381876,14.516908,67.327987,3.983264,1
9.850055,208.740232,35289.23711,8.35011,337.209742,462.480199,10.105146,50.886006,4.521836,1
7.166417,195.836462,21827.421899,7.05445,334.031093,420.83466,14.291183,69.013385,4.008659,1
8.719764,219.778898,30681.120258,7.268765,340.91849,481.853415,9.151209,50.178596,2.887725,0
7.073963,195.846125,23076.022448,7.166759,331.12206,417.802634,14.424797,66.919118,4.010921,1
6.632032,201.669933,24161.254979,7.964525,369.621585,346.860405,17.033602,61.20547,3.386294,1
7.277987,199.213976,21463.850919,7.213068,333.314695,426.757435,14.51422,67.024206,3.972991,0
6.998857,196.195404,20891.542824,6.976762,336.280716,423.998854,14.501568,66.971732,4.034799,0
7.174153,194.702959,22185.627617,7.143012,332.721355,430.071565,14.25098,67.372819,4.022809,1
7.134985,195.85889,22345.044136,7.263415,333.019769,419.810873,14.14339,65.539492,3.950805,1
7.087786,200.04417,22247.682204,7.036914,332.821872,427.625853,14.435121,65.171202,3.974002,1
9.567823,173.111498,38787.462705,5.15,444.970552,492.411524,12.904221,48.481477,4.197919,1
5.141507,111.994028,11288.634718,5.84175,389.225673,315.229665,12.982476,81.159239,4.510578,1
7.252633,195.673937,21554.956798,7.021796,337.235625,425.118698,14.181105,65.378225,3.942871,0
7.266595,176.853696,14859.059661,8.261778,327.172252,445.037456,19.923704,87.066131,3.357439,0
7.135288,197.889354,22567.09563,7.083463,334.420536,430.268215,14.16234,67.777219,3.871038,0
7.184101,197.251301,20995.185399,7.029084,331.060405,425.865511,14.447089,66.566035,3.940546,0
7.16322,194.499543,21671.888673,7.123214,334.905201,428.30641,14.312744,68.137714,3.976371,0
7.191989,197.692819,22142.359822,7.243361,333.050817,424.446155,14.03139,66.39607,4.028285,1
7.207789,196.01533,22623.242081,7.134075,329.464215,429.397463,14.186548,67.168579,3.966614,1
7.244247,197.062147,23051.697171,7.193292,332.162522,422.842493,14.343534,65.792706,3.99572,1
7.122553,197.576958,22469.822654,7.227608,336.991708,422.541846,14.146583,66.950772,3.948054,1
7.135118,196.477461,21810.359391,7.081264,333.415557,428.667793,14.483511,67.300392,3.917649,0
7.092876,199.137058,21865.515499,7.008154,334.530439,427.922273,14.261228,66.808968,3.947747,0
7.253304,196.060794,21788.066407,7.1467,330.372423,427.26579,14.632188,66.879577,4.007646,1
7.137304,195.785202,21418.147157,7.131207,334.330589,420.068829,14.275635,68.911567,3.995625,1
7.144487,194.182338,21586.186998,7.078693,334.323948,429.174023,14.477018,65.327489,3.955186,0
7.61161,222.252269,25063.683013,8.561124,287.948123,505.265483,18.273757,68.395413,2.873261,0
7.036056,194.605795,23345.781898,7.232792,329.361223,421.671108,14.220514,66.978185,3.988987,1
8.529669,157.700481,18203.730029,8.926826,309.541977,498.650833,12.287824,52.028741,3.776041,1
7.010411,195.739353,22345.503768,7.170383,332.261277,433.719165,14.608163,66.648976,4.066142,1
7.076715,196.193853,21720.261645,6.98642,332.003264,427.59081,14.438301,67.715833,3.865043,0
7.109788,197.895229,21754.22771,7.208083,330.557748,427.380637,14.335346,66.732702,4.006373,0
7.071603,201.343595,21400.498971,7.197736,333.447521,428.222388,14.268077,66.668843,3.973186,1
7.083818,198.775491,22044.205473,7.083243,335.456907,431.42878,14.645328,67.260202,3.970596,0
6.317577,143.299959,22577.818935,5.690078,338.8972,573.814744,15.315515,48.973887,3.399048,0
7.080093,193.469579,21818.406197,7.074517,331.888032,424.128473,14.604396,65.505881,3.864955,0
7.173503,195.203415,22704.44063,7.288277,328.911747,425.886581,14.233393,66.906531,4.004937,1
7.138943,197.223242,22365.026356,7.19552,331.352428,432.414633,14.125417,67.936254,3.986515,1
7.10366,194.737468,21840.819035,7.327399,332.229831,431.761058,13.921827,66.425382,3.973584,1
7.119982,195.464947,23276.781466,7.230321,330.670079,423.919635,14.345318,66.653545,3.984256,1
7.103759,196.787942,22757.497648,7.207608,327.682981,428.494449,14.397322,66.975157,4.009012,1
6.9723,193.561269,21563.506275,7.088643,329.618439,427.757302,14.376964,64.798781,3.96473,1
7.20275,198.285266,22315.914508,7.214708,334.497949,423.728042,14.039447,65.401592,3.95892,1
7.07912,193.407749,22589.665358,7.247449,333.321948,428.019399,14.506002,65.683667,3.929026,1
7.067547,196.058794,20785.877438,7.106472,334.882674,431.709531,14.929103,66.396375,3.878645,0
7.173711,192.470529,22851.755511,7.229035,330.755749,425.928897,14.288648,65.782435,3.992352,1
7.012069,196.982675,21390.047077,7.02874,333.852971,433.129593,14.627307,66.239144,3.924166,0
6.877524,196.991344,21766.869109,6.991183,334.254865,421.721997,14.307874,65.876254,3.943427,0
7.21553,193.546101,23492.698101,7.25062,331.052259,423.585571,14.083005,67.138429,4.010171,1
7.144144,196.523694,21776.583638,7.211369,330.801794,428.841564,13.993109,66.643849,3.978238,1
6.791697,175.894346,21467.950866,7.101224,349.492177,427.23974,12.556983,55.253912,2.817391,0
12.246928,217.368014,11318.140563,8.46516,375.894758,347.653054,9.762505,73.832405,3.533243,0
8.848586,188.919983,32033.332019,13.127,182.39737,479.791975,12.070444,77.671337,4.014682,1
7.040845,196.953228,23246.480424,7.217948,332.836041,426.041561,14.30338,65.548518,3.980876,1
7.057457,197.539141,21471.241264,7.086054,335.760738,426.531144,14.364176,64.866086,3.930807,0
7.180719,194.074516,22285.8089,7.099733,330.807961,421.524283,14.399759,66.703925,4.017463,1
7.041598,196.272334,22839.259174,7.087503,335.281788,419.388099,14.197378,67.182965,3.956948,1
7.053247,197.243712,22818.114754,7.032879,335.969172,423.883252,14.111993,66.852559,3.951509,1
6.941539,193.787971,21462.841023,7.012716,331.490372,432.044525,14.443733,65.424676,4.016949,0
6.922454,196.293162,21572.684317,6.969587,332.279945,415.515791,14.298677,67.407627,3.914916,0
7.022731,197.467574,22228.355491,7.103893,334.370536,420.543333,14.335257,66.278311,3.988063,0
7.079399,200.021713,21927.885185,7.235552,331.78206,427.135635,14.169875,66.563482,3.960928,0
7.055435,197.564884,21458.976313,7.028717,332.756251,434.828735,14.456079,66.044379,3.978306,0
7.04225,196.027718,22417.953568,7.174447,334.787851,424.345991,14.261923,67.663837,3.993862,1
7.178471,198.113784,21042.729637,7.158572,335.869176,428.180006,14.117534,66.650036,3.993134,1
7.037397,195.597156,21835.078788,7.14995,331.993916,424.985485,14.617846,65.995787,3.916744,0
5.898726,198.31002,21148.241905,9.1249,326.254282,312.388586,13.042948,74.311619,4.899815,1
7.052234,194.007174,21727.858992,7.15036,335.952669,419.956795,14.270654,67.64624,3.970745,1
7.000201,195.974047,21756.662076,7.129972,332.070939,424.472838,14.331758,66.477385,3.939369,0
6.94312,196.527738,21087.604041,7.113693,335.954264,423.913902,14.303322,65.31882,3.933956,0
7.313303,194.502937,23060.750202,7.169637,332.204833,421.862945,14.271276,67.39149,3.921364,1
7.120399,196.700193,21858.745725,7.037281,331.884111,421.669178,14.205819,66.610487,3.942288,1
7.3616,231.793183,29169.720783,7.929904,375.097188,389.272645,13.853116,39.532787,3.751589,1
7.094061,195.53488,22124.581414,7.193771,332.797903,428.830412,14.196457,66.729019,3.996095,1
7.09386,198.706742,21722.522519,7.115,334.131454,422.395897,14.535259,67.071988,4.018236,1
6.505873,240.287912,29534.690292,6.775277,341.728239,265.251199,13.570223,93.166465,4.497529,1
7.053191,198.854623,21509.730174,6.924864,337.417196,430.543883,14.59319,66.311604,3.932057,0
7.126486,194.832372,22513.925111,7.360713,330.540271,428.171682,14.387191,64.845657,4.004228,1
7.086873,196.09789,21612.958991,7.066553,334.002536,426.788883,14.390558,66.256096,3.999527,0
7.085957,199.453919,21156.413304,7.094024,335.583062,421.580266,14.585989,66.342481,4.02159,0
6.363836,207.422436,9844.702293,9.765921,320.630725,466.592544,19.156261,58.265305,4.038984,0
7.413288,196.452302,17465.345582,6.309196,355.164792,300.933492,13.178069,80.604776,3.290106,0
7.159016,196.346602,21058.025964,7.241842,331.36807,424.038119,14.353303,66.721125,4.025881,1
7.102186,197.113341,21116.312109,7.057905,332.983169,433.093609,14.555601,66.480534,3.958893,0
7.125023,195.261305,22363.626886,7.18931,331.499577,418.698867,14.26506,68.400663,3.944192,1
6.960017,197.830606,21116.357291,7.074256,329.690307,426.152189,14.439802,66.143689,3.922469,0
7.008241,195.869695,21992.476401,7.018316,335.432052,425.988969,14.249582,65.650249,3.957659,0
7.164734,196.432224,22580.325864,7.157707,331.414134,424.657075,14.422167,65.650598,4.065203,1
6.950296,193.537696,21308.752326,7.0473,333.28559,416.304337,14.388626,65.207754,3.892425,0
7.027861,199.15806,21684.030039,7.138199,333.482918,427.594599,14.458015,66.0275,3.998833,0
7.048927,194.334207,22304.765903,7.028058,331.143251,424.587057,14.470789,66.886751,4.074081,1
4.443851,240.167901,24070.263651,9.768406,338.052437,533.968647,11.877582,69.036523,5.038119,0
6.998961,196.86797,21868.028974,6.962529,337.229554,421.971872,14.697815,65.586477,3.882564,0
7.146954,194.640739,21690.046425,7.170698,330.764958,418.976191,14.011118,66.962808,3.933651,1
7.150471,199.200337,22568.345542,6.976757,329.800403,419.555519,14.38229,67.322232,3.93398,1
6.904121,228.960418,10836.969782,7.792593,362.296552,513.188842,12.70446,40.546037,4.141819,0
7.135393,199.103829,21992.76274,7.28381,328.800593,430.203005,14.574947,65.694392,3.92312,1
7.09379,194.640708,22490.803833,7.102971,333.117117,424.285514,14.288764,66.22674,3.977236,0
9.320305,129.823859,16002.13832,4.405035,271.670562,499.844167,13.076859,82.837583,4.20581,0
7.026383,197.832246,22067.386809,7.317311,329.961606,435.716997,14.158002,66.642137,4.018154,1
6.891549,184.074628,13376.680472,6.866435,333.802475,508.681145,16.586205,81.712849,4.958937,0
7.090558,195.270714,21944.619923,7.127725,335.20667,421.756378,14.299162,65.733158,3.963064,0
7.212144,196.567591,21995.137172,7.135607,329.878308,428.153265,14.667717,65.173155,3.959992,1
6.472371,164.768901,24246.503565,7.623012,373.212808,368.07951,12.764141,96.795403,4.134575,1
7.1693,197.275014,22128.501853,7.143493,330.857008,417.693815,14.363704,66.633544,3.968296,1
7.08151,195.941439,23189.334696,7.240043,333.230369,417.386848,14.696687,67.020264,4.003021,1
7.217661,195.981132,22809.358936,7.22651,334.100001,431.731247,14.179301,65.202085,3.974502,1
7.150955,194.914464,21451.594709,7.142164,333.569563,426.012145,14.495351,66.698434,3.941442,0
7.057487,195.149542,22599.251934,7.154187,331.436444,420.970857,14.217801,65.6451,4.000836,1
7.067259,197.221291,21815.396634,7.177562,332.961339,421.790203,14.450459,67.591915,3.956224,0
7.155132,197.06782,22326.269226,7.137382,328.086622,429.660781,14.601998,65.879808,3.971408,1
7.17838,197.178343,22995.956467,7.128408,332.422617,427.503655,14.100038,68.049918,4.071795,1
7.161095,194.937495,21321.805677,7.020866,335.143352,426.34321,14.431404,66.480787,3.966537,0
7.119884,197.904304,22153.877937,7.113164,335.222042,416.168392,14.417937,66.396198,3.992218,1
7.047974,195.092934,22534.586726,7.012886,330.938601,421.883865,14.372409,65.562818,3.964956,1
6.803038,196.137001,20782.49574,7.038043,333.872141,435.444469,14.371656,66.90116,3.998942,0
7.156556,197.296006,22688.446279,7.274321,331.376273,423.580912,14.255017,66.540593,3.987759,1
7.067291,195.932124,22406.625634,7.198147,335.480215,427.828212,14.356857,66.48578,4.009673,1
8.39451,224.347147,23961.504535,4.724373,337.406342,476.579456,17.213676,64.975961,3.712473,0
7.025962,195.481141,20869.510111,7.118005,336.054686,428.814977,14.626254,65.915853,3.924055,0
7.170435,194.644843,22162.740501,7.333481,330.041058,425.381622,14.26831,66.188739,4.012912,1
5.432512,231.351576,14970.647244,9.180703,409.988461,448.864741,10.838249,65.548216,3.874425,1
7.917049,278.056321,27192.280561,9.220128,424.787996,358.781736,15.054313,56.839602,3.659485,0
7.098896,197.598061,21322.283046,6.999126,331.762806,429.676776,14.287726,65.837869,3.938994,0
7.089626,196.411976,22285.294563,7.152569,333.21152,426.30318,14.171359,66.652275,3.986421,1
7.146641,194.886266,21114.038563,7.132358,331.808227,434.951914,14.348867,67.173045,3.998275,0
7.130298,195.286898,22255.366962,6.960604,333.138789,428.769978,14.429541,66.989232,3.916249,0
6.984567,194.580814,21990.016375,7.051095,330.408478,424.934026,14.016375,65.761879,4.092855,1
6.971365,197.677545,21716.340089,7.048514,331.63242,429.14613,14.615809,64.980899,4.011459,0
5.946161,190.551572,12767.656229,8.939748,323.742827,499.937502,12.41543,54.095581,4.903632,0
7.08413,196.351359,22099.882892,7.236178,331.209697,422.766533,14.339772,67.059903,4.034895,1
6.997495,196.331073,22013.711699,7.219536,331.116192,432.21614,14.36881,65.553761,4.012662,0
7.139428,179.234979,19862.811257,8.111958,337.947095,364.523151,17.384471,88.361846,3.771596,1
7.109536,194.379848,22074.988913,7.116798,334.03172,430.916425,14.169398,66.743522,3.981716,0
7.098479,196.208865,22726.74294,7.229682,333.354066,424.647931,14.217406,66.509582,3.992249,1
7.098026,193.982354,22485.458628,7.143395,330.388694,426.879288,14.28293,66.191086,4.016775,1
7.051061,196.499584,21827.661741,7.249662,334.491642,422.615949,14.119714,66.500598,3.963824,1
7.032335,194.717621,22257.859387,7.219599,328.5135,428.563451,14.219203,65.688774,4.022467,1
6.896714,195.697949,21543.174501,7.034362,332.132812,428.222242,14.145698,66.180226,3.885807,0
6.592443,242.480473,9381.239931,7.303184,312.814395,440.601135,14.027297,70.929879,3.060827,0
7.064062,197.908365,21297.208539,7.075524,335.040335,426.715579,14.298446,67.13508,3.944461,0
7.5423,230.15054,18877.493895,4.344707,278.250436,447.259353,17.555578,53.341682,4.317554,1
7.029281,197.597385,21461.966937,7.046688,334.619975,419.23622,14.488512,66.502583,3.99585,0
7.052368,192.917313,21671.364505,7.28749,331.097447,420.743535,14.032907,67.117318,3.977865,1
5.716251,184.229295,19393.469862,5.299164,290.276455,502.993687,19.643896,68.23637,3.433135,1
6.958167,198.471597,21437.261156,7.167539,332.476688,417.51122,14.141087,66.433379,3.984665,0
7.178579,194.71646,21836.951538,7.124587,337.97001,430.140189,14.62146,65.906768,3.867323,0
7.095085,195.391692,21326.949423,7.008032,333.6759,424.706104,14.381997,65.228803,4.012641,0
9.652563,205.206059,8508.15373,4.945417,386.541185,392.767453,12.446539,53.898037,3.19257,0
7.143024,196.052617,21128.214034,7.131385,336.68932,429.412814,14.327981,66.184694,3.876244,0
6.965923,192.167179,21447.844551,7.101337,333.623686,420.14849,14.458078,66.460412,3.960438,0
7.142739,196.52942,22272.386287,7.090966,333.772487,417.771167,14.436752,67.275073,4.014211,1
7.078182,193.286749,22552.589653,7.173856,330.501178,426.829848,14.549568,66.413757,3.966181,1
7.083878,196.027914,21669.235508,6.996237,334.804645,431.39378,14.434694,65.889385,3.912255,0
6.921275,194.790057,21842.468913,6.917387,332.393086,428.747428,14.382141,65.936492,3.941307,0
6.951177,198.394412,21997.311076,7.238368,336.549785,424.951795,14.211232,65.910685,3.979736,1
6.923636,260.593154,24792.525623,5.501164,332.232177,607.773567,15.483027,51.535867,4.013339,1
7.026136,197.57573,21414.102813,7.05242,331.829362,438.069218,14.270374,66.271901,3.95026,0
7.033748,195.783371,22030.259986,7.189316,333.168054,433.509366,14.55946,65.741209,3.919587,0
7.082342,199.231081,22548.684808,7.123768,332.347601,428.130785,14.105694,67.139733,3.951687,1
9.149734,230.561899,30468.641826,7.667655,337.557972,539.625037,16.133499,58.134527,5.436819,0
6.968801,193.165484,21686.104455,7.126368,333.756865,437.996811,14.704042,64.504372,4.005769,0
6.931769,195.614945,21688.095559,7.152624,330.06357,430.039457,14.248927,66.607751,3.96051,0
7.122346,197.075869,22857.401095,7.049107,330.731606,425.299845,14.51369,67.423156,4.067332,1
7.091219,192.698152,22299.112464,7.129946,334.589345,428.164209,14.001977,67.6967,4.002259,1
7.077031,192.265011,21831.255959,7.192632,333.755025,428.933291,14.614936,64.646181,3.916228,0
7.007736,196.163291,22023.702146,7.159001,334.59267,423.949626,14.155028,66.620606,3.886988,0
7.091867,193.321411,21883.821237,7.092199,330.769975,437.830152,14.628103,65.5692,3.939883,0
7.005668,196.713429,22351.651162,7.085336,335.002211,436.533624,14.167717,66.575638,3.924674,0
7.148246,197.298914,21858.841342,7.120027,333.748768,433.973962,14.918414,67.086981,3.917958,0
7.01178,196.876632,22462.330661,7.201599,333.589969,425.209197,14.161237,65.333238,4.034013,1
7.026512,197.162877,21580.685863,7.113309,332.7705,431.013547,14.220129,64.770334,3.99626,0
7.088658,198.084305,21119.599732,7.130804,334.815388,431.375029,14.124778,65.74302,3.971508,0
5.514062,212.555066,27859.748306,6.646356,286.474806,524.547975,13.067803,99.918387,4.460363,0
6.931919,197.184248,21146.678961,7.064176,337.482743,427.365589,14.603999,65.617211,3.950767,0
7.13593,194.055573,20855.833649,7.134099,334.766412,430.614447,14.557645,66.374956,3.976202,0
6.948649,195.598393,20773.79581,7.089392,332.993016,431.066849,14.44865,66.94139,3.919785,0
6.985699,194.777782,22233.209017,7.201993,332.305022,431.303913,14.32545,66.66292,3.930675,1
7.047432,197.223752,21807.403238,7.116128,335.361996,423.712339,14.500712,66.383184,3.992408,0
7.117993,195.408302,21852.117749,7.144039,335.530194,426.596566,14.361554,66.355657,3.984236,0
7.147942,197.264633,22518.068973,7.124843,331.779096,427.441716,13.972545,68.147842,4.004153,1
7.080565,195.509556,21184.812904,7.028984,333.502547,436.898684,14.108238,65.720004,4.042288,0
7.10553,191.771661,22818.485429,7.223905,335.294435,431.39041,14.119923,66.790808,4.008692,1
7.146284,195.11286,21378.618807,7.146896,332.975876,423.834389,14.589056,66.744836,4.005678,1
7.08409,189.213708,20828.006429,7.165226,333.823407,420.953321,14.329887,65.044513,3.99572,0
7.102654,198.252219,21196.07525,7.209605,331.550977,426.361337,14.397908,67.598358,4.004679,1
7.086482,196.238689,22038.979496,7.23471,331.596973,419.283278,14.397356,65.821783,4.006815,1
7.054009,198.638843,21331.144785,7.054566,334.517347,427.672313,14.312267,66.438375,3.964537,0
6.753128,191.982995,18222.931957,3.920974,296.196618,389.742462,9.689144,92.219615,5.102517,0
7.196763,196.01494,22406.845834,7.136435,332.695888,428.971065,14.183802,66.237989,3.956897,1
7.073105,197.586371,21208.705597,7.055465,336.428324,432.29041,14.58939,65.488853,3.966332,0
7.160039,195.030123,21740.290085,7.186303,334.630483,430.777467,14.646091,65.584399,3.916508,0
7.00615,197.038165,21115.928149,7.212613,335.445703,428.576829,14.372249,67.170101,3.96144,0
7.202878,198.859896,22225.112717,7.205248,332.171454,417.380885,14.250978,66.160625,4.025324,1
7.019885,196.118129,21328.866314,7.101078,329.905324,433.35155,14.525498,65.752362,3.932355,0
7.064311,196.176395,23066.386648,7.03785,327.535661,427.187739,14.43761,66.760885,4.032852,1
7.156591,192.692974,22925.253257,7.129708,330.142041,421.799638,14.347922,67.430097,3.981975,1
7.122839,195.547831,22180.762357,7.210631,332.73316,423.873013,14.339705,66.748558,3.897316,0
7.124665,196.595665,21759.791932,7.229676,335.409413,429.278897,14.383281,67.508184,4.002853,1
3.676845,173.677702,22581.224488,12.653362,289.126846,599.729246,8.386407,49.658554,5.461473,0
7.068134,196.843659,21394.733804,7.076895,334.907325,431.29902,14.229297,65.737369,3.965241,0
7.001046,194.535085,21159.688286,7.164696,338.258443,423.604266,14.317232,66.846713,3.896242,0
6.944806,196.473401,21370.388613,7.125398,337.87494,426.728203,14.64987,66.208195,3.953228,0
7.083702,195.383602,21235.012217,7.011781,335.687731,423.683641,14.249195,67.04324,3.931769,0
4.328283,192.166324,30592.548831,7.425894,327.303365,543.716029,11.186939,72.5664,3.708526,0
7.189322,194.813112,22230.89051,7.11422,332.278017,429.328505,14.241235,66.79079,3.977509,1
7.154767,195.702147,22045.085423,7.007309,336.453655,430.120686,14.386433,66.723918,3.895396,0
7.080062,196.033111,21816.863612,7.118434,333.606802,425.940687,14.405791,66.509156,3.984957,0
8.783168,218.03284,16183.586649,7.390474,334.053885,389.021616,16.35452,47.100982,4.274137,0
7.026254,196.234901,21783.086784,7.087672,331.717984,432.10426,14.397401,66.782927,3.944484,0
6.864688,195.569381,22213.842985,7.028638,331.182591,429.288901,14.156751,66.430456,3.968849,0
5.667651,229.928367,16953.898736,8.774306,293.57425,554.120536,14.254641,54.436702,3.633214,1
7.102129,195.558615,22153.067855,7.157215,333.204766,428.8316,14.451627,65.308585,3.959285,0
7.141269,196.11542,21614.415976,6.995043,334.580031,435.31624,14.277899,67.218986,3.909449,0
7.024529,197.228547,21458.103809,7.113031,333.344201,434.138585,14.290221,66.139834,3.932583,0
6.946247,196.256142,23106.676945,7.228184,334.025818,426.622283,14.286267,66.193683,4.02979,1
6.862224,194.098672,20887.368835,7.11584,331.900914,428.777764,14.490639,65.913185,3.937135,0
6.976569,196.962948,20920.564299,6.999603,334.099565,420.193615,14.400539,67.438361,3.99487,0
7.070705,196.369869,22396.469386,7.409299,334.735129,424.133844,14.490451,67.872011,4.063785,1
7.167767,199.248717,20790.803457,6.987854,336.846379,433.621392,14.58791,65.88341,4.016051,0
7.067867,197.329448,21704.178357,6.963848,330.589595,423.36697,14.216421,67.190016,3.949435,0
7.068054,198.395764,22405.96151,7.070567,333.073119,420.983219,14.55276,66.476989,4.002548,1
7.102178,199.255366,23379.755737,7.149555,331.977098,425.768554,14.541497,66.148639,4.012181,1
5.541979,185.671874,20143.065262,10.236176,209.471058,517.935786,18.464015,49.371319,3.672976,1
7.144496,198.93628,22867.008792,7.092062,328.434246,424.780916,14.179164,65.531237,3.962123,1
7.240324,194.731755,22624.18736,7.121054,330.554536,425.488814,14.067958,66.885521,4.022882,1
7.020578,196.57659,22389.158633,7.158634,335.322471,431.249764,14.171102,65.829258,3.842437,0
7.007096,196.825747,22281.604411,7.176586,331.525978,420.685375,14.064288,67.81008,3.987315,0
7.120307,197.563153,22756.059246,7.265267,333.973476,422.626487,14.3392,65.03559,4.052143,1
7.124045,195.68839,22015.910153,7.15599,331.138388,424.967906,14.452359,65.504978,3.992007,1
7.046881,195.159935,21654.524286,7.138601,335.195582,430.593236,14.63788,65.86982,3.930369,0
7.123676,194.861235,22021.299151,7.213045,331.258209,430.137976,14.158871,67.75802,4.000532,1
6.937769,197.510988,21975.005461,7.137062,333.137729,427.613156,14.651596,66.862953,4.028294,0
7.957768,276.733569,17162.398421,7.841542,397.431962,514.421722,14.529779,60.559699,3.450746,0
7.899452,210.734124,15896.365937,6.907203,319.886957,448.666423,18.169921,124,2.853767,1
7.140163,194.325076,22053.73181,7.317331,334.675467,422.940643,14.001213,65.857558,4.016632,1
7.080053,193.270907,22756.511695,7.122732,330.658015,418.962834,14.143559,66.710269,4.019502,1
7.211829,196.32386,21740.581479,7.083496,330.591981,425.564277,14.272738,65.872849,3.938309,0
7.245684,196.032872,21118.92093,7.004188,333.514465,419.38803,14.431434,66.836549,3.98259,0
8.466013,224.174936,22523.124552,6.668868,286.943922,330.044715,17.744096,77.817804,3.946621,0
6.952448,196.732531,21134.139723,7.189595,332.177925,430.016682,14.256216,66.770511,3.945858,0
8.111953,217.266472,38184.469574,7.254122,311.910224,281.069203,13.027921,78.582094,4.43075,1
4.872561,224.705105,16960.434631,7.078015,323.036852,354.390604,15.692176,79.962803,3.918006,1
6.203323,214.850111,29426.47378,8.034868,369.726683,319.766681,10.247863,65.308637,3.48792,0
7.00895,196.556786,21171.314563,7.089829,337.634386,433.682409,14.549544,65.785642,3.993466,0
7.026373,193.788643,22297.568248,7.293864,333.289319,424.333991,14.267032,66.50396,4.022709,1
7.173643,196.346669,22493.35228,7.048143,333.507848,427.217169,14.353081,66.00534,3.939535,0
9.868878,214.166235,15326.855914,3.351598,297.084174,424.292831,19.188441,70.070514,3.35549,0
6.361667,175.043999,25833.851713,8.243781,333.947107,302.19071,10.558576,70.107693,3.681765,0
7.065872,196.615569,22444.801919,7.247656,334.408784,428.195973,14.373763,67.422913,4.008795,1
7.053814,195.065246,22289.165111,7.219098,331.452553,427.502485,14.376154,66.031948,3.954753,1
4.477092,236.28249,26843.470364,4.842658,207.890482,456.979772,16.225706,74.035695,4.32768,0
10.682966,173.375498,15758.740621,5.570784,307.352586,323.807913,10.09087,78.472784,3.999775,0
7.086039,196.255301,21786.110948,6.979244,334.06918,425.379285,14.627211,65.706462,3.991077,0
7.086459,196.669279,21910.933075,7.12211,327.175999,419.901772,14.20147,65.880532,3.980563,1
7.180111,196.655314,22005.428942,7.057562,329.23554,419.152882,14.277662,66.053486,3.981612,1
8.020869,175.873676,21759.363929,7.487278,352.983112,428.660965,4.966862,72.305219,3.442121,0
7.161613,196.307505,22848.787803,7.029926,333.024232,424.488736,14.603962,66.746524,3.970759,1
7.735705,137.318166,16723.977244,7.675826,282.539892,595.329263,18.756139,63.042779,2.148612,0
7.02366,194.915069,22223.629636,7.198351,330.092469,434.752752,14.354721,66.159897,4.023999,1
7.037942,193.793054,22626.946903,7.087802,330.930243,426.102702,14.253263,68.03453,3.94128,1
7.141889,195.2869,22259.364231,7.121148,332.909063,424.49912,13.905729,66.494847,4.036575,1
7.047757,194.647366,21730.241895,7.050005,334.884252,418.109086,13.980144,64.864786,3.949227,0
7.088318,196.045007,21422.122976,7.149303,330.003408,432.114891,14.348598,65.839107,3.911584,0
7.033064,194.332869,22294.534985,6.975925,335.279809,422.334192,14.388882,66.019252,3.845796,0
7.140641,194.679308,21984.861493,7.106604,334.584315,433.061225,14.396326,65.914611,3.929274,0
6.995494,193.922518,22131.417733,7.212353,333.509248,424.136682,14.531933,66.640399,3.982224,0
8.164,195.212495,27414.899123,5.412481,231.724225,529.681807,12.425426,69.990128,3.673088,1
7.007019,195.779067,22537.083898,7.139021,336.870196,425.062711,14.356204,66.929356,4.047652,1
7.162234,196.356574,21725.556864,7.008539,331.46164,429.856702,14.154503,66.836756,4.00835,1
7.163541,194.055671,22825.355354,7.202006,333.664672,434.839239,14.387778,67.240205,4.002316,1
7.498372,236.714399,21736.373324,6.588566,407.312082,299.194245,20.737664,68.314347,4.242242,1
7.138907,193.179691,21854.198313,7.102756,334.048062,426.345364,14.519709,66.050038,4.034755,0
7.208555,194.021397,23033.129582,7.20207,332.706923,427.51339,14.192656,65.5274,3.92374,1
7.092143,196.238161,21210.027162,7.27794,335.989893,434.420898,14.261535,67.419909,3.963615,0
4.788861,234.893703,28174.620516,10.850036,187.424131,444.854321,11.784799,89.010974,2.896852,1
4.745764,186.303137,33153.812976,8.840474,370.167851,296.964102,14.784314,48.451375,3.699146,0
7.016732,197.429914,22421.093892,7.194957,334.172407,427.860116,14.577389,65.236146,4.031996,1
7.053507,195.55833,20899.413847,7.254903,331.801036,420.751246,14.201423,66.237786,3.953747,0
7.818275,179.218217,27558.542533,7.504453,315.447492,359.09919,12.618667,52.377477,3.329243,0
7.054847,196.155577,23307.451421,7.071511,338.619943,431.292287,14.265794,65.980952,3.925803,1
7.15016,196.890752,21698.213219,7.100113,331.124899,425.428927,14.531134,66.77405,4.040271,1
7.12946,198.40799,22317.633556,7.165666,331.013676,432.801615,14.321781,67.293171,4.054484,1
7.174329,196.367994,21570.166351,7.067842,336.580597,426.657991,14.429121,66.890158,3.975589,1
7.147673,196.048477,23269.459671,7.238082,335.387359,423.565371,14.188468,66.977275,3.977255,1
7.111654,194.245987,22179.202801,7.43084,335.878854,427.083436,14.362253,67.616888,3.96632,1
7.014088,197.001896,22244.845973,7.077428,332.499364,425.275902,14.233631,66.964949,4.049721,1
6.98246,199.303309,22347.287993,7.146748,329.234699,422.245588,14.119039,67.204458,4.026996,1
6.10514,249.141391,45249.449033,7.36936,338.771307,314.96509,11.251778,88.657477,3.10309,1
7.2193,195.035941,21240.999597,7.094451,332.723364,426.587339,14.263873,65.633726,4.019936,0
6.994255,197.389673,21884.210763,7.071068,328.28362,420.618529,14.308906,67.203217,3.99648,1
9.049166,169.509254,4343.356611,5.780823,386.700463,471.925377,16.170628,62.722085,2.814001,0
7.088032,193.145155,22304.926645,7.163798,331.923694,423.712665,14.376073,65.52115,3.945376,1
7.889579,153.569738,41210.666981,8.457639,294.260076,354.482689,11.292575,67.354769,3.22736,1
6.905088,197.378319,20698.074355,7.155511,330.100747,425.385907,14.66029,65.042208,3.967377,0
7.088565,195.082657,22218.672037,7.325883,336.451141,427.019005,14.062278,66.04356,4.014848,1
7.602121,199.353166,11346.143453,6.90038,304.966488,210.319182,17.925782,62.846673,3.698875,0
6.98399,197.203158,21542.278137,7.155439,334.953597,427.681342,14.272031,66.951727,3.979626,0
7.206782,196.195911,22151.424768,7.291191,334.060834,422.024844,14.266307,67.45713,4.037255,1
7.02557,195.22127,21152.894005,7.205846,335.57613,426.151996,14.456633,65.052999,3.945985,0
6.96731,194.810522,21620.812664,7.208607,333.261527,434.241749,14.791235,66.25117,3.893762,0
7.107874,199.450332,22018.811299,7.175779,332.800331,423.807351,14.326267,66.075177,4.064757,1
7.062451,195.219474,22483.310504,7.110993,334.83664,421.66645,14.071197,65.760071,3.94475,1
7.142599,200.041514,22740.854943,7.27591,331.604371,422.304637,14.226753,66.783345,4.001756,1
7.036476,194.907353,22361.586469,7.186292,334.597808,426.092413,14.242174,66.744877,3.999726,1
7.18539,195.763891,22494.187805,7.188344,332.744902,427.679318,14.268648,66.985999,3.938096,1
7.721033,203.354788,35800.699273,7.683399,312.919044,424.966995,18.092608,96.442129,4.168487,0
6.407963,199.131726,28460.203397,4.613721,330.914076,448.858006,11.656913,70.161839,2.954093,1
7.111533,196.139495,21809.653875,7.107624,334.677597,436.085661,14.377552,65.512263,3.979471,0
7.112156,192.665621,22004.58111,7.044606,332.224123,424.608288,14.069973,65.647486,4.010302,1
7.227766,194.869615,22389.593636,7.177377,330.497108,420.715316,14.235456,66.504882,3.965913,1
7.204074,195.761207,22319.834628,7.175589,330.279757,427.502229,14.389043,66.951175,3.971476,1
7.070531,195.552925,21688.882067,7.14752,334.960583,424.912523,14.560473,66.477209,3.96811,0
7.063683,195.46815,21629.430345,7.087236,333.365629,419.731874,14.448989,65.808843,3.912913,0
6.995659,196.124121,21331.025721,7.125692,334.643807,429.395366,14.254033,66.241106,3.919012,0
6.997926,195.814702,21710.893445,7.008086,332.021969,426.008384,14.359893,65.53505,3.980177,0
7.090043,198.679491,22903.410306,7.019129,332.634778,430.178105,14.066141,66.564998,3.975356,1
6.97969,195.409271,21737.341795,7.087391,331.605377,432.953014,14.328023,65.787906,3.931688,0
7.871961,219.622659,12760.437151,8.076613,360.086657,350.826916,15.698726,84.15808,2.938536,1
7.118082,198.650843,21901.573296,7.114056,332.626094,417.763797,14.0771,66.565672,3.981265,1
8.054886,200.943484,12642.065947,7.309822,334.442064,446.748442,14.94908,71.202038,3.514098,0
7.173476,196.969158,23238.160532,7.137187,335.611626,420.77083,14.634356,67.5656,4.006914,1
7.007546,194.392787,22250.849036,7.161256,332.218604,431.218792,14.421543,67.275411,3.94064,0
7.063962,198.186877,21397.64821,7.201675,332.250439,421.850294,14.392235,65.217619,3.933424,0
7.033934,196.031104,21331.300518,7.179139,335.572979,434.018624,14.398132,66.501994,3.972748,0
7.073552,197.163928,21385.606932,7.130156,334.818553,423.394765,14.672263,66.860429,3.907166,0
7.045375,193.040625,22514.530711,7.137061,331.305955,426.427768,14.434329,66.558647,4.045917,1
7.057016,196.367161,21282.461054,7.090272,332.296321,432.073064,14.481333,65.613681,3.94963,0
7.120385,196.336021,21764.557506,7.087962,334.014154,424.933186,14.054973,66.889633,3.928693,0
8.555283,216.655356,18337.460916,8.290688,311.325845,390.943089,17.138831,39.777282,3.687152,0
7.056703,197.18112,22044.444668,7.01115,335.507429,426.038532,14.492956,65.02308,3.902866,0
7.167748,195.676525,23083.781128,7.202436,334.978276,423.448502,14.114949,67.440895,4.009341,1
7.134549,195.07435,22967.250774,7.158974,329.477283,421.724755,14.160164,67.083529,3.97281,1
5.174896,205.519019,12871.55122,7.099599,365.684401,501.19395,20.558672,77.123457,3.445028,0
7.052468,194.560318,21123.706482,7.169736,338.244501,431.850145,14.351198,66.31128,3.974424,0
6.98009,196.369481,22244.731854,7.175444,334.83438,430.511142,14.091817,65.42781,3.994103,0
7.094034,195.964647,21625.349728,6.995018,333.971421,422.897981,14.300456,65.840727,3.909728,0
7.177866,196.142168,21591.893394,7.117812,337.206908,430.238015,14.485746,65.177884,3.928981,0
7.071571,197.312665,22596.943046,7.288674,333.793422,426.475403,14.38352,66.39772,3.99059,1
6.943882,195.940528,21361.487668,7.077021,331.760717,425.224985,14.536878,65.34898,3.986764,0
8.581043,153.709092,19970.434294,7.661687,312.885127,520.808359,14.781584,74.127793,2.883145,1
7.05994,178.80538,39484.638921,8.591113,281.386197,520.272861,10.795482,75.847542,2.949939,1
7.126653,196.956563,21100.628073,7.226049,333.77233,431.210115,14.624558,66.333748,3.994517,0
7.084208,197.928707,21019.559763,7.187133,332.703038,423.799177,14.185366,65.576143,3.924615,0
7.040328,196.621856,22393.862033,7.137258,333.874772,428.333905,14.648541,66.520489,4.025793,1
7.09317,197.144704,22978.523642,7.255763,335.56885,423.007645,14.460137,66.13374,3.985448,1
9.869232,223.772661,29549.658823,7.716923,281.11849,356.181916,14.202664,84.013585,4.73685,1
7.092082,194.475962,22778.302025,7.101489,328.021459,427.785259,14.405261,66.971903,3.958743,1
7.204714,198.075229,22439.857915,7.057238,338.685254,429.978249,14.215946,67.471157,3.895906,1
7.081275,195.998346,22936.064236,7.114499,331.493663,423.271927,14.374131,68.061073,4.055591,1
7.121437,194.346258,22790.280104,7.218836,335.201283,429.141062,14.221498,65.803802,3.97806,1
8.142331,221.752348,29808.236904,8.820156,205.935091,556.657644,10.7378,59.512998,4.704866,0
7.189578,193.926219,21164.636649,7.115761,332.250177,429.733557,14.116858,66.072356,3.937072,0
6.907329,194.183738,21630.654019,7.157261,333.125119,427.013846,14.191016,66.847346,3.95247,0
7.260559,195.314545,21957.661356,7.217429,332.383733,425.57209,14.169796,66.937278,3.997946,1
7.070495,194.431822,21094.730492,7.165765,331.397906,423.680345,14.497547,65.437714,3.947741,0
6.376408,182.121038,33046.727606,5.351533,362.352143,350.236326,7.592516,66.225674,5.404046,1
8.129342,211.123312,22982.927445,6.779005,326.397953,367.988784,13.910933,55.795357,4.822044,1
7.022899,197.385763,22069.360984,7.195829,333.710544,424.337358,14.36567,66.261768,3.995227,1
7.079265,193.878725,23239.149547,7.201338,332.109513,424.480322,14.191204,66.24633,3.950905,1
7.145772,238.689929,28780.340432,6.814029,385.97565,332.032706,11.093163,66.138045,5.182591,0
5.404511,258.903489,10168.176536,9.648197,248.711963,396.911214,15.512208,65.805331,3.998176,0
7.126832,199.538069,21833.569592,7.268769,333.715764,431.142961,14.370329,66.757429,3.937624,1
7.164957,195.996356,21633.727579,7.13531,329.794295,423.962621,14.673605,66.380984,3.954976,1
9.056245,197.666301,17403.532167,7.688917,337.460176,414.766631,15.349869,63.696746,3.319354,0
7.102326,195.378644,21381.107479,7.188651,336.32113,428.993721,14.566458,67.244857,3.995293,0
9.764658,119.16401,38781.457422,9.334632,380.230634,512.331846,14.967733,59.193176,3.024571,0
7.144322,195.918408,21660.734089,7.282735,334.848232,420.477653,14.294986,66.580934,3.981158,1
7.092592,194.30529,21689.649676,7.311787,333.385174,419.840875,14.157288,67.996189,4.005924,1
7.074763,195.078933,22490.887492,7.31602,332.130214,426.293916,14.370803,66.535002,3.978833,1
7.120072,194.765594,22566.201877,7.136398,333.741603,427.163769,14.293164,65.514852,4.005234,1
6.624573,172.055471,14877.289737,7.079934,338.441277,405.818097,15.656149,58.560531,4.333721,0
7.052162,197.332236,20817.952156,7.228693,335.518984,424.49918,14.540878,66.23131,3.961106,0
7.065402,194.735079,21814.420272,7.051785,331.286882,428.852198,14.662066,66.812549,3.971587,0
7.073336,194.458178,21695.57647,7.219785,331.132947,423.810958,14.167303,66.488501,4.007851,1
7.244869,196.087291,22264.680385,7.083939,339.284397,425.381304,14.102109,67.478958,3.958442,1
7.079062,197.140127,22572.886116,7.113619,337.042613,420.009064,14.133393,66.766066,4.001368,1
5.849778,229.936687,27435.306561,6.574958,277.033019,596.403216,14.908558,67.644484,3.643816,0
7.121749,196.635422,22084.397877,7.08813,333.275915,424.968755,14.415028,66.301268,4.047671,1
7.110329,194.929597,22031.463734,7.074933,329.919054,427.450737,14.586814,67.319898,3.947701,1
7.167871,195.862511,21364.676017,7.060735,330.062139,421.518659,14.236095,66.667143,4.037529,1
6.974081,197.608167,21158.025931,7.088357,336.1338,431.933464,14.524688,66.711252,3.955989,0
7.105965,196.437786,21835.840196,6.986592,336.645286,430.676966,14.520413,66.348215,3.967272,0
7.14725,195.981789,21380.825562,6.975949,329.700118,427.363218,14.398027,67.078985,3.911475,0
7.198234,196.432616,23196.631934,7.213601,333.498495,428.268142,14.10333,67.528863,4.000816,1
7.555823,190.461917,29411.628645,7.868878,349.948941,524.465999,19.408144,79.555593,4.099169,1
8.2065,182.905359,18949.975539,6.662949,347.132562,332.855321,18.328401,66.688384,4.225121,0
7.183626,195.297948,21094.798118,6.956269,334.642759,429.486853,14.288102,66.857238,3.976977,0
7.03564,198.779971,21327.456481,7.118246,330.121971,429.77907,14.210991,67.559004,3.923057,0
7.766114,212.317666,24145.385762,7.925887,364.081412,464.108595,15.465256,70.105844,4.399902,0
7.047591,198.47621,21760.163637,7.219882,331.535626,426.061806,14.389083,66.803652,3.943417,0
7.078536,196.671603,21299.172002,7.175542,333.453574,429.487197,14.37013,65.380245,3.920788,0
7.273393,195.49306,20944.081718,7.087762,334.146079,424.854056,14.514423,66.649102,3.987081,0
7.15715,192.511027,21086.075751,7.046507,331.945768,429.724103,14.239423,65.458155,3.949517,0
6.970134,195.448614,22174.714771,7.176422,329.088366,420.200617,14.150513,67.099244,3.959383,1
6.948487,195.645069,21588.638638,7.044161,335.178557,425.663839,14.612102,67.882831,3.971016,0
7.135373,195.007043,21124.216007,7.028753,335.271462,422.041133,14.289209,65.735808,3.94511,0
6.980798,193.884189,21454.779214,7.011408,337.843119,427.989081,14.236376,65.823135,3.977275,0
7.036862,197.523208,22690.959531,7.321433,330.76522,434.069561,14.271666,66.986925,4.0198,1
7.116746,196.737195,22310.509563,7.240595,334.829592,428.457616,14.30626,66.678018,3.941242,1
7.135761,194.707856,22662.806666,7.1659,330.248285,427.500197,14.397999,66.133318,3.958593,1
5.628407,226.830043,28334.491937,8.012497,293.924273,351.161213,15.019241,35.178662,5.050683,1
7.02719,196.885009,21511.596427,7.045898,333.56339,424.770365,14.130674,64.626018,3.940911,0
6.946869,196.892537,20662.887,7.092187,333.255709,433.004831,14.450846,66.099722,3.926856,0
7.124298,196.725594,20916.052683,7.229452,333.865651,428.542784,14.637899,65.729188,4.04326,0
7.019217,194.43324,21656.229432,7.022669,333.983668,429.81458,14.2545,65.40882,3.910754,0
7.160585,194.449906,22323.907942,7.21037,331.224561,425.22365,14.627864,66.748269,4.007359,1
7.086145,196.236916,21743.247984,7.216013,332.894299,430.501495,14.305409,66.041217,3.997218,1
7.110692,194.902837,22462.589671,7.256006,327.735592,426.30355,14.172384,68.617208,3.985859,1
7.061428,195.030544,21724.345444,7.136294,335.422806,426.584949,14.299139,66.244294,3.971046,0
7.073357,195.881369,21339.255152,7.152397,333.796493,427.421707,14.520208,66.015295,3.903578,0
7.116811,197.130546,21529.435797,7.126438,335.102496,430.658938,14.278945,67.415562,3.986619,0
7.184084,194.03664,20942.467476,7.171551,336.143531,427.188154,14.550759,65.72956,3.935531,0
7.102561,199.292825,22526.380712,7.203605,331.386872,426.692814,14.359718,66.0094,3.993932,1
7.236716,196.542685,21833.652695,7.281639,331.50581,426.16484,14.088471,67.000361,3.998889,1
7.080147,195.8615,20944.43531,6.998429,333.455178,430.247723,14.5276,66.049958,3.944772,0
7.833971,240.832529,25694.873706,4.300509,301.760386,442.741389,16.889098,96.899576,4.814917,1
7.180104,198.278088,21414.122163,7.19459,334.88425,425.571736,14.414142,65.844063,4.006,0
7.114226,199.711425,21328.79287,7.140803,329.628039,425.592492,14.609748,65.746912,3.982124,0
7.002353,196.618292,21607.118606,7.062122,334.008687,431.348342,14.278914,67.464048,3.856874,0
7.054445,198.641615,21467.973662,7.075298,336.344303,429.553704,14.340695,66.802939,3.989255,0
7.033882,193.586254,22035.039881,7.112635,335.977556,431.449155,14.395301,65.779635,3.87722,0
6.970687,193.693604,21770.850293,7.218424,332.487658,424.422568,14.114716,67.29766,4.020388,1
4.221421,120.56013,34370.197113,7.960888,411.58083,436.774598,14.395839,64.601468,4.278712,0
6.877344,196.349323,21585.604239,7.1567,332.52113,429.341194,14.286292,64.954204,3.946561,0
7.097869,197.676524,20657.832028,7.125966,332.533927,428.0789,14.344435,64.990674,3.925138,0
7.054756,196.82258,22332.425759,7.242341,333.989228,423.006211,14.174958,67.355654,4.02511,1
7.160612,195.390717,22170.909919,7.253854,333.578857,427.448113,14.131865,66.052548,3.980599,1
7.094752,197.77675,21154.672566,7.028849,333.783826,426.220108,14.277687,65.916467,3.969791,0
7.132998,195.645238,22310.286228,7.258118,328.94754,422.023346,14.380782,65.727382,4.051531,1
7.106961,196.37401,22631.980891,7.20261,329.633074,430.253148,14.54117,65.841298,3.932327,1
7.048029,197.808349,21282.962555,7.196148,336.711312,427.256602,14.266481,66.684331,3.925442,0
7.081292,193.979448,22259.24385,7.157781,334.897026,422.829027,14.120346,65.333899,3.958436,1
7.06002,195.006333,22372.675188,7.131746,335.996388,425.148891,14.17137,67.960399,3.946805,1
6.998959,195.881044,22189.959931,7.162184,334.68249,429.614782,14.255964,67.207857,3.996816,1
7.232313,197.062182,22104.403722,6.98303,331.708058,434.008768,14.391258,67.418882,3.968439,0
7.076875,196.721603,22879.746296,7.158462,333.258906,432.118753,14.318275,66.404443,3.968463,1
7.030589,197.103023,22886.194902,7.198597,333.151146,422.075746,13.974361,66.40288,4.072337,1
7.177564,196.000194,22495.089788,7.038601,334.799032,432.201084,14.274967,67.327577,3.980923,1
6.887333,196.483222,20881.539394,7.078938,334.424986,428.995315,14.376658,65.824281,3.928616,0
7.16378,197.454686,21545.564922,7.102979,331.512067,426.839682,14.36874,65.967083,3.959875,0
7.141861,194.281236,21996.960609,7.058814,334.608798,425.882406,14.262689,67.663747,4.047194,0
7.123809,191.854201,21664.245018,7.305511,334.350401,424.421987,14.2951,66.057044,4.11951,1
7.086282,196.270138,22177.792355,7.058902,333.057111,426.75015,14.440384,66.09018,3.976915,0
7.10726,196.040284,22839.30966,7.149056,335.559438,430.101569,14.356145,66.40326,3.980085,1
6.961892,223.595839,31101.684277,3.692065,343.827276,530.22141,13.67548,70.434962,3.446728,0
7.214135,195.369826,22011.985977,7.249143,328.655636,427.697782,14.370471,65.897599,3.962509,1
7.054249,192.741686,21744.657127,7.124017,332.301763,426.67513,14.451167,66.617125,3.938501,1
7.017462,199.260393,21281.523585,7.127052,333.176821,425.436555,14.406722,65.943671,3.959385,0
7.101587,196.00665,22873.03855,7.189622,334.867752,431.890746,14.356494,65.194248,3.954725,1
6.098157,189.995846,27776.901052,6.443098,347.9304,245.859632,14.636882,73.424632,3.977362,0
7.173322,194.614441,22606.823092,7.130109,334.984081,429.228642,14.259462,65.692014,3.972227,1
7.119957,196.382135,22227.988578,7.265578,335.289148,420.20817,14.338784,66.317617,3.928071,1
7.168592,197.139904,22145.258502,7.120501,332.993217,426.0388,14.248011,67.903244,4.033052,1
7.129694,196.802633,21687.750608,7.005827,332.025028,436.457754,14.419033,67.534008,3.970765,0
6.920473,197.034842,21712.042139,7.315608,335.307066,431.069433,14.162005,66.530134,3.968494,1
6.941095,196.265515,21648.739931,7.028123,332.54654,428.505143,14.163629,64.872293,3.945457,0
7.133313,195.372455,21192.544583,7.058982,334.220676,428.979077,14.406797,66.806228,3.977123,0
7.188848,191.985073,22127.907132,7.041406,332.663835,420.874017,14.63812,66.874671,4.016675,1
5.952268,136.890531,28105.964887,7.330958,389.809746,423.963995,15.37378,68.969793,4.769768,0
7.080446,193.973386,21958.244779,7.187898,331.49398,425.392533,14.171998,65.509425,3.921941,1
7.10485,198.131541,22210.905215,7.174165,332.512721,427.674512,14.266215,66.313384,3.912484,0
7.19705,195.762871,22491.415583,7.164751,333.513305,423.579072,14.338756,66.39533,3.966666,1
7.165537,193.207996,21769.681145,7.081544,335.717284,432.315655,14.336405,67.332534,3.94343,0
7.032147,193.840952,21756.293822,7.139676,332.657923,419.816993,14.441664,67.943108,3.936446,0
7.037321,195.48327,22759.29767,7.054372,334.963658,433.822109,14.423874,66.067647,3.985913,1
7.095632,198.768023,21795.671543,7.177935,334.877924,426.321357,14.330827,65.852023,3.988423,1
7.069355,196.094125,21134.891759,7.052924,334.523232,428.398515,14.466647,65.734451,3.912861,0
7.001178,197.243468,20651.475759,7.255424,334.518337,431.940216,14.236854,68.057068,3.967703,0
6.963099,194.002505,22251.787142,7.114413,335.558228,431.611985,14.266976,65.831958,3.947852,0
7.195605,195.202523,21598.941822,7.050383,334.543335,419.478947,14.323122,64.730083,3.974195,0
7.127099,195.372736,22272.163697,7.260922,332.185449,428.972319,14.410171,67.245957,3.950438,1
7.041255,196.458438,21423.598138,7.142952,332.504338,427.826864,14.420198,66.348163,3.901015,0
7.064018,194.152981,23087.651876,7.329644,333.467924,421.54298,14.586227,67.716576,3.971329,1
7.100712,193.265579,22805.220111,7.007045,331.428719,422.019179,14.271255,64.644967,3.996883,1
7.201862,193.815442,22812.732879,7.305398,328.68699,423.255856,14.537076,66.572178,3.928169,1
8.828094,196.562853,17699.610609,8.94038,379.914286,486.863267,17.517283,61.182844,3.793318,0
5.859822,287.97554,3640.73432,4.072626,391.697385,447.121861,6.363175,49.155291,3.426634,1
7.120542,195.615689,22569.259503,7.087971,335.789126,428.895551,14.500678,67.113445,4.036249,1
7.207307,196.645187,22401.657965,7.20558,329.961376,425.343763,13.899419,65.667624,4.048664,1
6.87515,196.126177,22371.738328,7.032635,333.492031,421.332971,14.294929,66.357655,3.95007,0
6.990428,193.742,21624.810557,7.18841,333.455562,427.970092,14.374111,65.951389,3.968434,1
7.096047,221.508245,17240.021065,9.181473,322.616878,442.543599,16.5762,78.122091,4.785637,1
7.157539,194.747877,22367.229055,7.153955,327.431684,423.204545,14.24472,66.511114,3.925509,1
7.065804,194.370309,22050.38262,7.108815,337.220841,426.877592,14.45187,64.271281,3.920496,0
6.832217,164.274393,14015.044769,6.055985,281.67804,389.978097,14.836637,44.367574,3.145416,0
6.943582,195.848167,22045.361586,7.119773,332.09847,431.191992,14.44345,67.246592,3.890915,0
7.118164,192.356458,22528.666804,7.176935,333.089061,423.98439,14.518719,66.331605,4.048984,1
7.070063,194.217245,22135.598776,7.332027,331.28556,418.679509,14.3894,66.223599,4.00992,1
8.9899,215.047358,15921.412018,6.297312,312.931022,390.410231,9.899115,55.069304,4.613843,1
7.053891,196.685847,22513.756326,7.166972,331.660688,415.961285,14.56548,66.25585,4.009728,1
7.086628,195.933416,22384.935782,7.176875,336.500287,428.899071,14.650108,67.074222,4.026375,1
7.061486,193.849612,21520.032513,7.159981,336.110038,423.256466,14.405006,66.849507,3.925057,0
7.13848,198.722584,22131.359426,7.120217,331.785881,425.232135,14.502644,66.76279,3.966099,0
7.110492,196.982421,22540.270222,7.135224,333.018141,417.431384,14.297171,66.078663,4.001687,1
7.032107,194.451797,22022.891015,7.010141,334.900535,427.987276,13.96295,65.713131,3.976202,0
6.908009,193.097623,21154.402312,7.192963,334.961545,430.355904,14.358312,67.395783,3.928969,0
7.145513,194.669194,22600.341259,7.268378,328.272882,425.347841,14.456641,67.365178,4.007368,1
7.204251,195.572164,21484.917819,7.125099,332.670725,435.188759,14.307299,65.938304,3.957543,0
7.2394,194.573641,21204.421875,7.114029,330.348559,428.529639,13.990717,66.642208,3.97651,0
7.08297,194.684081,21895.988072,7.287632,332.731336,429.866625,14.297823,67.667863,3.988957,1
6.559628,152.115213,22624.034182,7.761108,387.51881,393.820412,10.107462,55.286671,3.664463,0
7.137897,193.641281,23249.601401,7.206946,334.561127,419.628346,14.377065,65.837986,3.952616,1
7.001687,192.759475,22531.354585,7.047362,330.870222,417.0647,14.548563,66.694487,3.975073,1
7.126108,196.562213,20676.055808,7.055382,333.522748,432.32053,14.247885,66.750169,3.980428,0
7.030004,196.901134,21179.938008,7.11747,333.349551,429.872053,14.262433,66.090287,4.027425,0
8.907987,202.461211,33653.761963,5.431879,330.827133,426.186565,18.759902,79.370621,4.641259,1
6.932703,195.657786,22206.11043,7.075347,333.566976,427.415709,14.257439,65.439317,3.936168,0
7.103482,193.390494,21712.044383,6.962013,333.638835,434.34148,14.191747,66.435839,4.002773,0
7.15047,195.561177,22300.570355,7.262961,333.175102,420.432363,14.507172,66.64816,4.021109,1
7.141209,193.320057,22730.201053,7.213275,333.806864,424.763698,14.351548,67.019411,4.08975,1
7.089628,195.040581,22027.908434,7.078815,335.273893,425.017089,14.240868,64.778775,4.009393,0
8.736126,257.231329,12726.298639,10.326558,356.415434,506.375934,11.337489,69.425715,3.368533,0
8.551078,216.415932,28909.290284,6.936782,295.223707,510.895001,16.202371,79.859323,4.04638,0
7.021666,191.645722,20965.978511,7.135379,335.728111,430.768936,14.629102,67.359968,3.931848,0
7.194569,192.83487,22178.943457,7.285101,330.252231,423.003559,14.336768,66.511789,4.013886,1
7.286167,208.444085,30879.026684,6.856967,336.048832,352.602146,10.566452,64.025333,4.68602,0
5.428357,167.017383,24930.198811,7.967086,334.086977,400.393437,18.179149,70.312696,2.847844,0
7.139533,198.268661,20573.432324,7.139923,333.125404,427.133009,14.329457,66.029443,3.891456,0
7.078067,197.36261,22063.941284,7.121278,334.266012,431.068294,14.538937,65.031883,3.927981,0
9.739562,166.948864,13623.160063,7.235922,385.059134,369.591289,12.322604,68.505852,2.56808,1
7.13057,199.241228,22128.963545,7.28568,333.303016,423.361385,14.037735,67.22682,3.982102,1
7.076176,196.497905,20875.284632,7.063592,332.903384,424.924415,14.375895,65.390583,3.975538,0
7.108981,196.406325,21547.13232,7.162372,332.627503,426.62008,14.716657,65.667032,3.927191,0
7.079304,137.007355,24282.154769,5.705693,433.6339,342.725318,9.113945,88.328605,5.553174,0
7.156124,192.897528,22588.352958,7.159902,332.851171,423.406886,14.160322,67.295098,4.00138,1
7.101299,197.795658,21994.445385,7.20984,331.428637,429.088342,14.351075,66.230082,3.925854,1
7.084413,194.852512,21697.723165,7.112105,333.249131,424.604872,14.364397,66.214376,3.912997,1
7.070143,193.660974,22555.085381,7.127277,328.340958,425.67539,14.311803,64.916105,3.991167,1
7.100723,198.110813,20646.68982,7.033231,332.91814,426.997299,14.618765,66.01843,3.939798,0
7.004658,194.933925,21150.276594,7.060865,330.191438,431.171112,14.071594,66.539066,3.974887,0
6.999373,196.203406,21050.06217,7.221621,333.991446,427.71659,14.296412,65.456973,3.897224,0
6.987948,194.720944,21526.411885,7.289132,335.177663,428.412783,14.524703,65.872725,3.991442,0
3.878879,177.712841,21937.471569,7.369769,299.241624,447.303756,12.451912,63.163113,4.927711,0
7.096328,198.615318,22335.711775,7.163977,333.90146,429.610265,14.452673,66.720414,3.969314,1
6.334163,197.482326,23460.821381,6.121464,303.550324,399.563786,18.822216,62.222875,4.03883,1
6.987553,198.215841,22519.210727,7.228127,330.348978,424.875221,14.297071,66.964262,3.965293,1
7.119555,197.012891,22250.463555,7.183978,329.795358,418.919076,14.339855,67.224419,4.01951,1
7.053588,196.055586,22625.454148,7.135102,331.416348,425.939203,14.409281,66.469894,3.996701,1
8.315959,221.270223,16123.304451,9.475801,348.177331,501.673983,22.159747,75.364974,2.760213,0
7.137058,195.390992,22669.552354,6.971416,335.259487,428.051509,14.74518,66.971119,4.018042,1
7.043974,195.111431,23139.166588,7.27016,330.936393,420.172818,14.524632,66.119915,3.997482,1
7.123377,196.96799,21443.011607,7.114189,334.024501,428.464003,14.619265,66.740042,4.002974,0
7.566517,205.396582,30823.73049,7.816636,354.175972,395.297275,12.095251,63.767702,3.275142,0
7.071943,195.641885,21661.539217,6.966769,332.895744,427.517949,13.959556,66.778196,3.937286,0
7.145297,196.720202,22089.194386,7.092502,333.265372,419.92652,14.394325,66.708765,3.941475,0
7.13,195.189443,21125.315276,7.123324,334.620785,425.240266,14.237748,65.560676,3.922266,0
7.057098,192.19027,21464.328686,7.046493,330.488012,432.734822,14.505533,67.385641,4.000604,1
7.105886,195.907071,23043.099148,7.213902,332.53488,425.47644,14.261037,67.417254,3.964731,1
7.150542,194.175809,22867.868994,7.168713,332.987457,422.659672,14.32453,66.002167,4.054422,1
7.153523,198.54496,22570.384244,7.336337,336.072961,425.126721,13.920109,67.644276,3.954191,1
7.042001,196.166658,22520.689737,7.211056,332.559253,429.221972,14.479475,67.14875,3.902153,0
7.063571,192.609143,22523.555267,7.204287,333.050402,427.239161,14.379207,66.469498,4.070138,1
7.078004,195.226062,22042.270558,7.128647,334.586505,423.853836,14.592707,66.486981,3.947486,0
7.147967,196.91435,23465.441354,7.164288,332.62372,423.635311,14.156352,65.986906,3.901798,1
8.418607,191.86709,29313.783353,5.605864,306.325364,546.790994,13.133959,96.125198,3.442848,1
6.978764,194.053755,22089.491463,7.198909,329.705032,420.372689,14.345536,65.170052,3.942817,1
7.0764,195.820284,20724.862427,6.978027,332.383862,430.714354,14.409236,66.674408,3.944158,0
7.176942,195.77446,21096.716999,7.117348,331.451933,421.717709,14.353148,65.861512,3.978001,0
6.998491,195.561311,22108.651251,7.086436,332.161775,428.065499,14.398668,65.984244,3.967686,0
7.139933,196.371655,21984.361395,7.143568,335.827781,430.121249,14.393684,66.676106,3.988944,0
6.951523,194.359306,21818.194656,7.128512,329.503175,425.60038,14.275673,66.588743,4.004759,1
6.008974,225.080234,5100.094173,7.452236,336.119,325.134492,11.079952,36.341012,4.01234,1
7.10689,198.975227,22047.092951,7.216232,334.257309,433.549869,14.047443,66.412997,3.990629,1
7.085055,196.216785,22444.957709,7.250911,330.206564,418.41611,14.235628,66.417795,4.000587,1
7.07214,197.208409,22317.69455,7.049546,334.639617,426.89655,14.182337,67.325929,3.991807,1
7.088112,196.116667,21733.851599,7.209832,333.458699,422.842289,14.266606,67.029393,4.000882,1
7.066856,197.370361,21773.690157,7.071147,335.531468,433.675858,14.365637,65.16182,3.970562,0
7.158302,192.544567,22589.012122,7.193699,326.493694,420.650918,14.327779,67.721438,4.033033,1
7.135036,196.494395,22940.231914,7.162888,336.559126,431.240295,14.188003,65.39892,4.054795,1
7.054484,193.560272,22252.445691,7.326293,332.174923,432.275835,14.086085,67.071159,3.961022,1
7.223473,198.005724,22033.031886,7.12096,335.317733,427.165051,14.461135,67.7808,4.016182,1
7.176767,196.531343,21854.821089,7.136135,331.595131,431.736511,14.520394,67.072045,3.953339,1
7.190508,195.245103,22183.080009,7.053233,328.523369,428.067671,14.021204,66.9327,4.069994,1
7.945909,213.066407,16769.890546,4.74534,292.419247,478.16671,14.189856,82.054404,3.585431,0
7.380105,237.922637,16862.543476,7.101817,306.182925,478.654518,13.254475,92.864557,5.030452,0
7.052859,195.331674,21428.736708,7.183456,331.508675,422.809667,14.185085,66.476557,3.991774,1
7.019324,197.504202,21882.427663,7.086536,332.399108,425.253301,14.684008,67.002902,4.011515,0
7.031423,195.618838,22263.536622,7.164239,333.898521,426.422536,14.35215,67.226746,3.987921,0
6.929926,196.138907,21989.41598,7.1808,333.115081,428.610635,14.148909,66.996425,3.847674,0
6.962609,198.584237,21470.855496,7.091738,332.913604,429.706568,14.326744,67.603109,3.965332,0
7.606067,248.041453,14609.976883,6.356555,322.356572,275.317146,11.706095,94.775244,4.581477,0
9.147197,211.714142,11920.610836,7.230795,339.751919,527.70891,18.275312,47.634885,3.794532,0
6.982357,195.459776,21864.458911,6.974844,332.34647,431.917675,14.439708,67.966893,3.922893,0
7.381758,203.460302,1372.091043,11.129154,475.73746,361.342496,16.548438,55.132546,3.338022,1
7.29531,196.25297,22068.19941,7.112299,332.494192,435.532375,14.101524,67.501989,3.933914,0
7.057738,198.353331,21876.222938,6.956131,335.120639,432.394972,14.720983,66.251569,3.961952,0
6.933164,194.937392,21746.161482,7.272501,338.839354,423.537416,14.188842,66.922785,4.029924,0
6.16448,189.058756,27312.168385,6.822157,319.951593,522.801398,13.50258,53.696202,4.834023,1
8.558389,198.888868,8535.402956,4.796666,321.403477,453.571163,14.351624,74.326204,3.946228,0
6.283104,236.823214,26188.162174,9.364361,328.503515,470.821569,16.351912,68.910337,2.663921,1
7.094892,195.415031,21315.27615,7.080175,335.349473,429.63768,14.19243,67.217678,3.917405,0
5.97677,258.952732,27267.981861,7.648599,383.657152,514.11892,12.25679,82.469798,2.994671,0
7.171984,201.790632,22624.397371,7.195187,331.689627,421.120528,14.308239,67.123821,4.015208,1
6.98354,198.290116,20922.652106,7.1603,330.876088,425.409362,14.360385,66.899287,3.897588,0
7.122641,197.196351,22675.353737,7.149381,331.698565,431.080375,14.466879,67.193178,3.935995,1
7.133522,198.018903,23229.102374,7.086269,329.389148,428.45317,14.084248,65.973873,4.014292,1
7.884842,229.24266,21733.828044,7.903081,315.189984,368.770894,11.635399,49.804322,4.631641,0
6.665774,155.709679,30610.0479,8.172548,337.173767,425.691956,15.101533,79.780467,4.903553,1
6.930365,197.479323,22537.715815,7.244853,331.777231,424.883572,14.243939,65.96423,3.98844,1
7.113518,193.930483,21760.90325,7.015001,329.461391,434.103258,14.415397,67.366565,3.954839,1
10.28938,162.780252,18869.21209,6.906497,344.18761,585.679589,18.857141,74.293779,3.500167,0
7.065498,199.372352,23029.84559,7.343967,333.503987,431.729153,14.43899,66.306753,3.923793,1
7.113049,193.322151,22041.009941,7.164272,332.648615,419.588516,14.557589,67.303404,4.005172,1
7.133109,195.588057,22289.75914,7.349033,330.362357,426.089074,14.34254,65.060795,4.01767,1
7.153505,196.465148,22357.897958,7.179264,330.948557,430.47622,14.232922,66.524893,4.055163,1
7.176171,206.294901,25794.95019,7.794727,321.284079,485.25443,15.574877,49.15196,4.742967,1
7.147005,195.276119,22242.414973,7.098779,334.067481,423.784499,14.174361,66.263805,4.017825,1
7.16457,197.115351,22160.808884,7.112451,332.409069,420.792985,14.413872,65.925522,3.996677,1
6.888548,179.632475,30722.298233,6.579328,284.885743,393.493155,7.70101,63.293585,2.901432,1
9.969273,237.022863,26944.681919,5.588775,334.326196,379.137977,13.00818,86.185058,3.643379,0
7.136225,200.405319,22031.55662,7.206514,333.324811,418.32218,14.399147,67.710962,3.944685,1
7.156275,196.147327,22556.279025,7.019994,333.311713,423.23543,14.379237,67.319834,3.999708,1
7.008177,194.700791,22632.695551,7.095855,333.585581,429.051364,14.484662,67.417778,3.935782,1
7.112026,196.983308,22613.111846,7.175633,331.242813,429.439605,14.170795,67.058922,3.967001,1
7.178411,195.503581,22023.247432,6.981198,334.613481,425.526915,14.329239,65.698648,3.997046,1
7.130165,195.106036,22034.901266,7.077239,337.122407,430.553075,14.479856,65.947613,3.890992,0
7.039451,196.660805,21541.455069,7.146265,331.144458,424.806505,14.444033,65.687493,3.917192,0
7.118965,195.595432,22174.133123,7.137936,331.6339,424.076845,14.204813,68.454438,4.010184,1
3.629922,244.187392,24856.633209,6.618071,366.967873,442.076337,13.30288,59.489294,4.754826,1
7.113913,197.056431,21759.147427,7.07712,332.817329,428.618698,14.572738,65.323834,3.976272,0
7.026764,195.574711,22411.746698,7.311216,327.526734,428.14857,14.228779,66.426825,4.03111,1
7.067612,193.911639,22603.814932,7.307759,331.60052,425.600701,14.242348,66.791277,3.926134,1
7.101289,197.612689,22211.795561,7.094639,330.957797,435.408619,14.635893,65.115454,4.000154,1
7.114019,195.787639,22753.181572,7.126695,329.784545,421.921899,14.531251,66.02646,4.027232,1
6.995915,197.157093,21519.604678,7.116844,335.335548,427.011035,14.388133,66.802346,4.029969,1
7.2273,194.019536,21342.807532,7.073016,333.118911,426.217712,14.419554,65.684046,3.995755,0
7.06205,193.326172,22099.305708,7.215949,328.946945,430.109829,14.30458,66.346369,3.968256,1
7.146785,196.975151,22169.439585,7.135124,335.031752,424.186116,14.548703,66.469042,3.973465,1
7.146922,196.475425,22518.32549,7.246563,331.077948,431.389515,14.505704,67.008376,4.040313,1
7.164968,195.650487,22436.411227,7.153821,329.259386,427.511305,14.184939,66.896916,4.075437,1
7.144634,195.520877,22089.226561,7.318246,331.218774,425.315057,14.515027,66.178658,3.989435,1
7.121325,197.581395,22341.011181,7.088846,331.720399,420.015408,14.085127,67.960216,4.035748,1
7.088935,195.016375,22791.711049,7.034861,332.603957,424.478985,14.316599,66.389172,3.965908,1
7.108141,148.624606,23688.205223,7.003488,339.112673,259.963763,17.218575,56.044934,4.015246,1
7.144684,195.915103,21964.28152,6.991578,334.477812,427.054286,14.360639,67.009479,3.940513,0
9.313466,133.141751,41982.610655,6.628037,417.245388,267.801711,10.36823,75.436147,4.493613,0
9.135694,194.815618,9496.910354,6.185925,345.714206,562.771467,13.676435,74.424166,3.281802,0
7.106255,193.973385,21842.516373,7.126921,331.543192,423.790307,14.067899,64.661019,3.922778,0
7.050987,195.294929,21767.77949,7.112304,333.261541,426.155976,14.281619,67.022018,4.065802,1
3.762098,196.024255,45050.002276,8.725582,324.14624,493.226463,8.662215,85.157127,4.986069,0
7.059936,197.456952,22539.6934,7.200475,332.679492,431.869044,14.1533,66.374788,3.980565,1
7.089598,195.503649,20975.207267,7.246958,333.513991,423.894011,14.090031,64.548066,3.979917,0
7.063734,195.393829,21284.907511,7.21695,330.055291,434.270148,14.549417,66.435484,3.991984,0
7.124387,196.627547,22854.154436,7.222142,330.378784,427.187309,14.231318,66.421312,3.926333,1
6.969126,195.558955,21829.024939,7.192534,334.194973,425.456793,14.344463,66.704749,4.0267,0
7.046441,196.283699,22915.017285,7.252922,333.872223,430.424207,14.210519,68.298029,3.933578,1
7.094727,196.406338,22732.653671,7.132415,334.917775,428.630597,14.507483,65.395815,3.994568,1
7.032566,197.508493,21580.172566,7.020742,334.794731,429.966642,14.296972,65.994093,3.973289,0
6.506488,202.285938,17087.076902,6.201983,326.662368,481.771934,16.535186,46.205748,3.548776,0
7.010022,196.376454,22440.730875,6.947767,331.264255,433.714607,14.364059,67.147069,3.967653,0
7.083563,196.719427,24006.636525,7.282895,334.094628,428.69301,14.087296,67.25277,3.952056,1
7.104517,193.979813,20898.145408,7.049874,331.142675,434.281748,14.251028,66.980245,3.92866,0
7.154978,195.643955,21305.878789,7.129243,333.78269,417.482679,14.263079,66.444022,4.015839,0
7.140087,196.485699,22784.432557,7.259624,332.411493,422.998844,14.16453,66.830889,3.957575,1
7.07251,194.298446,21416.945236,7.083747,333.140992,416.51775,14.327914,67.251101,3.911032,0
7.001405,194.884025,20334.983876,7.134124,334.16904,427.825581,14.216901,66.971091,3.957331,0
7.045374,195.010831,21744.66771,7.153495,333.234177,417.673086,14.271232,65.466915,3.991734,0
7.082641,194.895425,22205.427712,7.114952,332.893253,425.158634,14.345409,67.149948,4.003932,1
7.055868,196.680577,22390.903765,7.084041,332.454222,431.699276,14.616973,67.319172,4.016312,0
7.100964,197.948075,21694.469356,7.153139,331.88779,417.931206,14.429828,66.848762,4.03228,1
7.045189,197.484211,21401.279383,7.105118,328.651768,419.934036,14.521647,67.218549,3.919883,0
7.110679,197.207832,22884.301423,7.233639,331.702256,423.111737,14.162528,65.603462,4.035315,1
7.130184,194.018425,22420.469157,7.152952,331.278555,424.629052,14.301232,64.969366,3.967185,1
6.935264,194.442331,22378.688906,7.276465,332.519864,417.659471,14.216588,66.728744,4.032554,1
6.110545,166.637305,21319.794397,7.681245,311.253565,340.630642,13.623813,95.49468,6.064559,0
6.9477,199.414672,21875.284438,7.116587,330.244786,427.578742,14.375103,66.287857,3.949031,0
7.119049,197.121679,22323.072111,7.11814,332.866213,420.939105,14.487965,65.588574,3.929661,0
7.582942,185.045993,23072.780698,5.892273,297.505772,518.048524,12.038457,80.312558,4.164029,1
7.104549,198.151708,21464.79159,7.171087,333.615038,426.984299,14.194211,66.263864,3.94861,0
7.057129,193.705734,22048.320073,7.168225,328.921424,423.35672,14.36752,66.581405,3.991326,1
6.979699,195.899294,21867.134955,7.151221,333.895731,428.809602,14.475809,67.306478,3.951339,0
7.095021,197.684114,21663.452508,7.140228,333.535388,428.364751,14.647079,66.14032,4.03916,1
7.019466,198.512856,22286.947183,6.960741,330.573602,428.062337,14.372367,67.462427,4.052017,1
7.149246,193.597754,22851.762393,7.075401,332.825091,427.386831,13.976839,65.090168,3.965724,1
8.384296,223.328185,27463.654795,6.476753,352.952803,318.042648,10.645164,64.209337,3.460998,0
5.548182,204.259899,39997.783697,7.027226,319.202935,431.972429,15.400396,41.952292,3.94546,0
7.069029,195.390102,21318.699687,7.18716,331.503868,423.526736,14.287905,66.060766,4.060208,0
5.036454,190.16452,29258.738136,4.991061,300.475925,332.359715,11.055801,116.161622,3.534665,1
7.194924,197.079072,21228.238941,7.121967,334.318639,422.493347,14.357032,67.515054,3.976152,0
6.944633,192.638,22916.327831,7.261038,334.910163,432.186603,14.417549,68.795098,4.037755,1
6.95477,198.442992,21846.724436,6.978572,336.095649,431.604688,14.259093,64.900228,3.985835,0
7.301823,197.48225,22352.752898,7.159171,333.798076,422.138019,14.176453,66.698319,3.920614,1
7.033363,194.301125,22002.6552,7.039682,333.454348,429.706528,14.441394,66.953298,4.003158,1
7.15088,196.301171,22121.678508,7.3101,331.066376,424.536688,14.215105,66.876465,3.997348,1
7.133404,194.160355,23056.238098,7.090887,332.806941,423.145002,14.321165,66.434022,4.068822,1
7.081843,195.548712,22811.776826,7.019331,332.665937,419.046363,14.381735,66.216183,4.006112,1
7.309596,193.472596,19343.149511,7.664061,306.685455,426.561928,12.844366,111.595448,4.048202,0
9.459931,222.894659,14450.175747,6.790914,293.746321,433.145005,9.069161,67.906813,3.32289,0
7.277463,194.998787,21806.360159,7.197324,332.935585,429.987031,14.045794,66.460307,3.982285,1
7.067128,197.160576,22290.816423,7.18212,331.139647,427.306144,14.063301,67.268926,4.005537,1
8.189214,156.328465,18432.476518,12.246394,370.121385,288.351471,11.8719,79.765841,3.709509,1
3.832917,218.72384,23535.028901,6.475402,352.505898,421.183478,19.273561,58.903698,4.76866,0
6.319432,180.965621,36278.718309,9.960552,275.591746,307.691361,18.196931,93.594246,2.653127,1
7.243705,198.685425,21782.470997,7.054425,329.451448,425.543568,14.259845,67.293764,4.005583,1
7.022975,196.493136,21549.006313,7.197341,332.976063,426.1202,14.269327,66.061337,3.940545,0
6.996585,197.091231,22398.675314,7.194916,335.197081,427.314808,14.536379,65.664993,3.937719,0
7.098281,196.076907,21815.809028,6.961151,333.523007,430.298122,14.66506,67.14329,4.02116,0
7.106708,195.632796,22118.716651,7.26681,332.087944,424.054981,14.253312,65.500764,4.00574,1
9.622106,182.909728,30307.217675,5.657004,422.445681,573.330497,17.699718,45.906782,3.975572,1
7.181774,195.54188,21730.933158,7.123266,331.941322,423.98819,14.442906,67.292057,3.90792,0
7.122133,197.720464,21387.379357,7.162279,334.072757,431.134135,14.343908,67.171222,3.882842,0
10.308478,217.219746,27653.235184,8.912266,369.531206,382.951505,6.580402,59.57604,3.285077,0
6.548018,176.006536,38368.012618,7.415054,278.093309,291.121528,19.422535,81.368568,5.930228,0
7.15455,196.934884,22042.630018,7.208249,336.458157,424.817926,14.441771,66.071105,3.987521,0
5.068796,211.689502,22781.364534,5.330123,317.103903,483.442018,14.495791,77.212274,4.362086,1
7.067365,194.289298,21494.983801,7.080073,334.068898,426.316772,14.107551,65.8016,3.950852,0
7.147618,194.155195,22309.813737,7.167667,332.34972,424.788655,14.346929,66.862099,4.061374,1
7.026472,199.271003,21917.853773,7.172596,331.001717,415.746108,14.455064,67.845991,3.970622,1
8.757257,200.1914,21536.224687,4.915101,317.8829,404.717799,13.768323,47.930872,3.626135,0
7.019405,195.313602,21533.627101,7.265183,333.027884,424.030525,14.13243,65.728289,3.900438,0
7.098145,193.799113,21401.9879,7.179607,330.779262,433.953611,14.462328,66.525432,3.984279,0
7.064441,193.656669,21634.47005,6.807793,338.122869,438.710937,14.569497,66.850583,3.942921,0
7.166786,195.714281,22675.501732,7.188709,333.227282,421.05428,14.503849,65.916302,4.004418,1
9.026788,253.217074,27965.072146,6.588374,373.553235,588.319651,16.145732,59.124451,2.019042,0
7.142557,197.253021,21044.91586,7.12833,333.613492,429.286773,14.106616,66.240428,3.953103,0
7.169955,197.507126,22598.218981,7.265048,338.059171,428.505539,14.385304,66.551359,4.005737,1
6.992325,194.762122,21312.312867,6.935984,334.417815,428.603518,14.576173,65.740138,3.974478,0
7.115672,195.416836,22617.002556,7.227879,331.960765,425.010664,14.208025,66.040804,3.983223,1
7.102656,193.877982,21921.004423,7.160993,329.723127,425.258699,14.260336,66.092634,3.96851,1
7.025306,202.809081,23502.857795,5.239013,335.548719,471.131716,13.891519,63.751855,5.989543,0
7.144309,196.832742,21785.005225,7.295113,329.854066,418.254384,14.309294,65.926579,3.948839,1
9.175586,281.594235,47852.888871,8.330276,314.783761,422.318227,9.969136,64.070548,2.959685,1
6.989507,194.309102,22028.554572,7.180846,333.490345,420.735866,14.253813,66.839623,3.991747,1
5.019985,156.970822,19272.704481,6.18471,331.559845,341.35716,16.196573,75.302598,4.089485,0
4.801154,180.772871,13556.734397,8.977286,322.062447,587.395012,12.401368,62.028187,4.418638,0
7.205825,197.620418,22642.962167,7.118713,335.931762,427.993311,13.978125,66.041154,4.009235,1
7.043978,197.686222,21821.764155,7.145157,334.703529,424.455907,14.46821,66.523946,3.933438,0
6.980727,200.467226,30862.784459,6.196276,391.666878,422.489596,9.066902,48.250468,5.437619,0
7.096806,197.21533,22243.469505,7.099226,329.45318,428.904289,14.422789,65.548552,3.972526,1
7.211516,196.280896,22024.753311,7.160677,331.830174,427.265327,14.44314,66.254487,4.015604,1
7.00094,197.571473,21274.648702,7.090615,331.824018,432.222355,14.474563,65.0474,3.972425,0
6.986652,197.279706,22037.710524,7.204889,333.743009,430.057211,14.313007,65.730097,3.983505,0
7.180482,194.380363,21770.183185,7.015729,332.22369,429.201376,14.615642,66.885904,3.926694,0
7.117368,194.511004,21760.561669,7.250834,332.976706,424.555666,14.287613,66.992937,3.893936,0
7.061427,196.114234,22353.705745,7.22277,332.875313,420.475256,14.000436,67.971744,3.970622,1
6.909592,197.025686,21122.646664,7.17332,332.996733,428.33553,14.450437,66.691185,3.927995,0
9.038326,227.357659,34353.839725,5.573277,231.053687,421.664482,16.331421,92.643383,3.706266,1
7.109027,196.629365,22298.484464,7.164688,332.851084,430.324663,14.249813,66.195386,3.902487,0
7.106884,193.258066,22150.40106,7.042129,331.248617,426.056788,14.336213,66.637485,4.042103,1
8.560349,244.796705,14254.661316,7.4539,315.971147,500.586608,18.228749,57.365541,2.939213,1
7.10488,196.367317,22873.111855,6.961225,336.57193,424.512889,14.143236,66.540328,4.044616,1
9.0121,268.679299,13064.450591,7.625641,358.33676,549.827142,12.015868,63.698404,4.962329,0
7.141378,195.755964,22743.301885,7.278055,333.300439,420.851596,14.404924,67.660886,4.004422,1
6.969407,195.852783,22039.566916,7.052028,336.958553,431.137948,14.550097,66.349176,3.936818,0
7.117341,192.881742,22639.618892,7.176552,331.013075,424.210387,14.450366,67.66432,3.946459,1
7.139989,194.568849,22243.104637,7.224459,335.676825,424.24693,14.454148,65.654962,3.862494,0
6.856757,195.817056,21620.227606,7.092907,331.374349,428.714954,14.731089,65.466638,3.989364,0
7.194326,199.891556,22097.12169,7.000303,334.574328,427.40144,14.233281,64.258408,3.968284,0
7.09245,198.005774,21524.518247,6.997535,332.796767,428.147593,14.230725,67.853881,3.949577,0
7.198257,196.498813,22710.750804,7.028326,329.322633,425.894535,14.417777,67.734085,3.969931,1
7.111128,194.490777,22750.367807,7.21274,330.813677,423.312229,14.244821,67.127376,4.021504,1
7.123679,196.600941,22016.160886,7.110683,331.827483,413.014007,14.291497,66.536469,4.07355,1
7.731315,169.049684,38356.226496,6.028454,297.329355,525.879408,16.07112,74.909705,5.164284,0
9.34947,252.148499,13137.490762,6.173823,320.323984,349.816084,13.109898,58.801291,3.778023,0
7.030436,198.920102,21919.517768,7.059821,333.353891,424.328696,14.215459,65.998105,3.952991,1
7.066326,197.206621,22357.617421,7.193775,332.757183,416.589547,14.137577,67.255555,3.989921,1
7.071827,197.530537,21858.496079,7.216479,335.594555,422.65912,14.312079,66.26818,3.979118,0
5.368126,190.937979,32619.312975,8.098839,351.358134,435.666469,11.983635,107.900842,2.004143,0
7.121827,197.823887,21311.787975,7.018575,336.792844,422.607231,14.387319,66.26197,3.951599,0
7.008655,195.433162,21912.97881,6.909353,332.950695,421.438784,14.342552,67.330109,3.914758,0
7.156113,196.053449,21514.733467,7.089268,335.998966,425.730679,14.216028,65.650883,3.988254,0
7.155374,195.813374,22821.837437,7.391585,330.052256,427.198884,14.218133,67.814388,3.973381,1
7.059331,195.442492,22082.956151,7.084386,332.942201,427.710752,14.227861,67.010229,3.910449,0
6.974646,193.921861,21078.776585,6.962957,331.113661,427.335505,14.442686,67.291881,3.953798,0
7.114245,196.040337,21301.874566,7.227206,333.650578,425.108004,14.185244,67.640396,3.935481,0
7.142311,195.602364,21637.138071,7.238878,331.361573,423.074093,14.267759,67.102742,4.009003,1
7.254082,197.399124,23168.850564,7.283733,330.526907,422.002701,14.245945,66.533365,4.045126,1
7.044974,195.46851,23238.067571,7.129296,334.399238,418.910131,14.246555,68.610434,4.02944,1
7.048575,193.148881,21628.293242,7.12647,335.239883,430.439726,13.981839,67.329032,3.922926,1
7.125818,197.556238,22090.341886,7.093769,335.191488,431.116995,14.40194,68.130665,3.997786,1
7.0266,196.189762,21678.950674,7.186611,335.099013,420.335733,14.373974,67.956765,3.998912,1
7.120886,194.497669,22459.582444,7.176712,336.03451,426.115438,14.466923,66.844226,4.076424,1
7.146158,195.454541,22349.412396,7.049268,335.232105,425.439174,14.415594,66.246866,4.021746,1
6.47614,215.721769,21165.590649,7.642952,348.474943,315.078135,13.54318,46.169007,4.04158,0
7.066712,196.286977,22530.868549,7.198233,333.089292,432.832573,14.385733,67.41887,4.001254,1
7.081883,195.607963,22564.368616,7.131072,332.869133,428.986735,14.152936,66.86797,3.979161,1
7.060974,196.116714,23102.436009,7.252488,329.546457,431.936945,14.139389,67.007884,3.984389,1
7.087494,197.835266,21249.419867,6.906881,335.081903,425.471911,14.704762,65.615472,3.972455,0
7.15931,193.820709,21529.490239,7.120925,337.209535,432.220434,14.061732,67.833721,3.982428,1
6.964869,195.754356,21484.036937,6.995802,332.897866,427.935779,14.375213,66.657642,4.004208,0
7.899257,187.700654,32210.816301,4.996763,320.532363,400.149806,19.873604,46.913342,4.448171,0
7.211562,192.238458,22212.443616,7.235798,332.119982,423.700885,14.011141,66.245363,3.952587,1
7.039094,179.645225,28827.360186,4.945555,389.889271,593.396225,12.079207,58.363507,4.366031,1
7.138802,196.972536,21489.882253,7.093045,332.889668,423.690856,14.358762,65.535743,3.932293,0
6.959332,193.891209,21487.776845,7.184991,333.294478,432.535709,14.548938,67.01938,3.9282,0
7.460727,237.579612,25222.956004,7.277443,316.562331,377.68222,5.914617,62.044183,3.949015,0
7.0217,196.347758,21367.964196,7.158385,334.415678,432.282208,14.440468,66.54878,3.970996,0
8.978998,213.091772,19030.716876,5.291516,316.940333,473.150388,15.891079,66.087038,4.656317,0
8.92241,207.520726,13291.922609,8.560537,357.944327,468.538326,15.692738,107.282329,4.081728,0
7.125307,197.275565,22570.586814,7.131837,329.907632,434.262809,14.17885,66.952337,4.054277,1
7.178751,195.488039,22641.906559,7.115692,332.900258,433.569975,14.183755,66.408463,3.972319,1
4.700393,195.352807,35216.534274,7.919083,335.279376,539.464648,9.852785,64.721331,3.481944,0
7.174034,196.19193,22039.91271,7.184515,332.255959,423.920265,14.473218,65.798381,3.925091,0
7.135967,198.939221,22023.449306,7.1374,327.074775,423.184748,14.305037,66.247943,3.974289,1
5.609025,271.630824,26955.330183,6.772753,296.651564,443.872558,17.048683,72.827392,3.35489,1
7.166986,195.187274,22513.926553,7.163711,332.786454,419.623909,14.143389,66.761804,3.977054,1
5.585117,143.505413,22234.696738,9.252852,368.387465,437.124665,11.575215,52.424378,4.148343,0
7.16682,196.036142,22779.901355,7.085782,335.908165,418.679881,14.744662,66.112532,3.929059,1
7.137364,194.801094,22132.332639,7.283782,334.698978,423.229438,14.557519,67.585142,3.974902,1
7.037514,195.287346,20654.475992,7.029195,340.050604,428.585664,14.294913,65.220481,3.905081,0
6.987042,191.781448,21581.312341,7.059881,332.963925,417.888614,14.176969,65.860415,3.950622,0
6.962632,197.122723,21692.977741,7.137649,335.546088,431.155896,14.502305,66.650593,4.035263,0
7.173358,197.224314,22379.171382,7.086774,333.823937,422.408592,14.34607,65.495595,3.960896,0
7.063028,196.679738,21475.32164,7.172402,334.726229,420.636033,14.332812,66.273681,3.948939,0
7.1482,196.125588,22024.864229,7.155813,334.694298,426.565208,14.496962,66.139756,3.970809,0
7.068848,197.717187,22079.893209,7.049555,334.613307,429.780302,14.197567,65.834571,3.93082,0
7.089767,194.682253,22331.703334,7.031547,332.091708,435.313677,14.463808,66.776796,3.981953,1
7.011648,195.04145,22372.976335,7.089455,335.50514,425.435413,14.475754,67.248441,4.020032,1
7.130671,197.387211,22582.360654,6.986752,336.276344,429.234213,14.174085,66.888712,3.905793,0
7.086817,196.855083,22337.715198,7.161396,334.728292,420.732996,14.178726,66.934409,3.993707,1
5.452215,199.228468,14446.81239,7.689191,298.318418,469.131951,14.020507,95.306239,5.190534,1
7.102918,194.18051,22641.726285,6.927019,336.154783,426.079478,14.298966,66.547152,4.007709,1
7.170088,195.042116,21812.573354,7.173845,332.429017,427.887738,14.320727,65.011121,3.967323,0
7.089672,194.935373,21858.879627,7.057455,333.626338,423.984875,14.408729,66.37613,3.958507,0
7.074395,196.192893,22472.59853,7.261576,336.151606,424.130869,14.301058,66.303034,3.946977,1
7.045741,194.230367,21646.054243,7.276863,333.003409,429.405748,14.306925,67.380317,3.912812,0
7.192445,193.675311,22894.019923,7.235086,334.91176,424.13348,14.451523,67.729438,4.017741,1
7.067593,195.228245,21821.824216,7.241712,334.406765,426.901695,13.97636,65.825391,3.971216,1
7.078927,196.026521,22457.113227,7.046556,332.539487,422.787407,14.353796,66.031653,3.995558,0
6.702496,208.553784,29057.227617,7.029491,302.74496,361.947758,10.614582,53.879737,4.267953,0
6.976003,195.64381,21257.317984,7.083216,329.807549,424.526161,14.370996,66.241496,3.934471,0
7.082504,196.703786,22480.023075,7.117413,333.290423,426.837839,14.346291,65.653653,3.965211,0
6.976904,195.262036,21276.344654,6.975982,333.310658,425.673671,14.402518,66.733261,3.853641,0
7.102026,194.890108,21832.421722,7.11481,333.06383,425.6673,14.405233,66.919379,3.976953,0
7.213537,176.640063,34727.408564,5.162278,287.706912,332.199507,10.327476,77.261468,3.497481,0
10.22769,225.919118,9546.129215,5.899676,313.987343,372.532752,15.284291,61.258046,4.78633,0
7.066869,196.259052,22317.060508,7.270672,334.932391,428.078439,14.188311,66.667542,3.980883,1
7.104506,196.576343,22409.473603,7.242468,335.331181,424.78963,13.976034,65.833243,4.023429,1
7.028907,194.439277,21315.680523,7.087379,333.325612,425.464029,14.393443,66.515219,3.942802,0
7.031435,195.545769,21460.329493,7.186049,334.688731,428.899293,14.635456,65.391418,3.978218,0
6.959046,195.552386,21715.539338,7.150269,332.733979,434.053342,14.366558,65.566789,3.925757,0
7.204899,194.98564,22128.20132,7.16485,333.970772,426.238745,14.513488,66.063987,4.114286,1
7.135896,197.47351,21693.741509,7.090342,334.778565,427.817877,14.139335,66.904765,3.963678,1
7.098913,196.613922,21601.807684,7.011641,335.634788,433.004437,14.330356,66.07375,3.925107,0
7.242541,198.168568,22721.391137,7.118469,328.908007,428.916968,14.307924,67.422689,3.997768,1
3.854618,131.396253,19639.796002,7.753502,305.382914,456.512274,16.864722,81.526123,4.290435,0
7.198193,195.915236,21245.54156,7.097319,334.047095,428.859072,14.458192,63.819977,3.894778,0
7.149819,198.796142,22049.869273,7.151717,331.031931,424.887976,14.292432,69.192834,4.008373,1
7.019749,195.330879,21836.550519,7.004911,332.018204,424.253254,14.354593,66.118384,4.005987,0
7.200146,196.483573,23058.559096,7.204555,331.500598,426.655698,14.004303,66.512887,4.00592,1
7.054101,194.726203,21455.587284,6.981143,335.911095,422.534347,14.50824,65.858913,4.001183,0
7.167286,199.240414,22524.21109,7.062123,333.509727,422.831216,14.359837,67.844542,3.972723,1
7.313447,158.707472,23154.062319,4.143329,276.550161,436.517274,10.890085,87.91253,2.22064,1
8.528292,227.686207,27352.343415,7.676323,349.995746,388.137754,12.611736,80.186071,4.596924,0
7.112523,197.075418,22897.006236,7.230896,333.894062,420.858247,14.214227,65.229204,3.964612,1
5.666446,142.147811,24383.741538,9.989551,320.264283,511.954001,23.604298,77.030487,3.836823,1
7.031086,198.654926,22314.263305,7.262713,335.015451,424.852378,14.48793,67.217366,3.997818,1
7.08346,196.954666,21776.398416,7.165313,330.589121,421.675333,14.376894,67.074065,3.933233,0
7.206509,193.038328,20916.488936,6.913949,333.777187,430.402872,14.478174,66.944094,3.939496,0
7.050237,197.596227,21247.788791,7.025383,334.537384,424.135257,14.596958,67.354707,3.974815,0
7.083703,194.936758,21494.943546,7.201687,333.818716,429.634275,14.472684,65.50912,3.947675,0
7.075373,196.881039,21223.594527,7.046761,332.794555,431.768576,14.202874,66.929584,4.012447,0
7.204053,194.651504,22868.518833,7.333735,333.23235,416.16121,14.425365,66.376699,4.000852,1
7.118305,196.908757,21623.887299,7.099849,334.605232,423.134544,14.47892,66.383668,3.977704,0
7.08025,197.910577,22706.040603,7.136882,328.970817,425.957804,14.023074,66.099184,3.994963,1
7.014024,198.089957,22670.732501,7.109045,334.94008,423.781608,14.452361,64.562332,3.988249,1
7.023173,198.644983,22301.371092,7.21143,336.771949,426.612193,14.429863,67.181582,4.020937,1
7.227302,196.980111,21941.602578,7.076036,337.04922,429.786278,14.214824,66.504734,3.9399,0
7.056685,198.971867,21313.008595,7.046606,333.902145,426.671941,14.212254,66.956552,4.001152,0
7.088691,192.984938,22565.283714,7.281233,330.613122,430.938886,14.110243,67.511396,4.007009,1
7.127065,196.878975,22838.43803,7.08296,330.706763,421.265939,14.394012,66.675357,4.005334,1
7.093396,195.715875,22364.743493,7.143477,330.171657,423.987336,14.377075,67.520648,4.058152,1
7.2166,195.634778,22217.188005,7.16356,332.670445,422.012295,14.247082,67.058054,4.057136,1
7.08587,194.22086,22584.847581,7.374775,331.233417,427.02585,14.096392,66.754214,4.083191,1
7.217103,193.664038,21828.47545,7.175634,332.366973,423.821326,14.27396,65.788042,3.938635,1
7.027297,185.838671,31151.615179,7.625545,327.221734,398.705017,19.461464,80.693568,3.392666,1
7.051873,196.394663,20986.835932,7.17421,333.502753,430.379932,14.643064,64.531276,3.968066,0
7.18409,194.847098,21336.390862,7.095228,333.184586,432.6952,14.378068,66.551049,3.897516,0
7.183507,196.54767,21871.728855,7.031039,332.850443,431.010965,14.282418,65.632348,3.941754,0
7.034368,197.312092,22774.124628,7.365212,333.483207,423.423788,14.423383,65.249271,3.966868,1
7.192065,194.909539,21195.507069,7.04774,334.734088,427.850996,14.242128,66.771325,3.942141,0
8.546146,177.846244,23349.485417,7.652073,352.817053,413.3216,12.357385,108.849568,3.5053,1
7.06635,195.336181,21539.417546,7.170184,334.391958,426.6378,14.263407,67.188939,3.987311,1
7.105625,196.035653,21007.8831,7.12366,333.876474,429.798312,14.37438,65.858029,3.948549,0
7.343271,194.23898,22347.548529,7.226609,333.726118,432.602652,14.374641,66.440973,3.964162,1
7.783306,196.815952,24789.354734,6.548497,331.036776,372.764982,12.066182,14.343161,5.04562,0
7.381109,188.314378,12320.512292,5.493514,343.239612,475.301884,17.826838,38.337345,4.342738,0
7.196413,194.409835,21414.791196,7.214882,336.049698,428.041683,14.275362,66.168503,4.015596,1
7.065061,196.590461,22452.703182,7.173939,335.07694,430.684773,14.422856,67.728385,4.004934,1
6.903866,196.755089,21705.433046,7.180823,334.194288,423.580748,14.518774,66.768967,3.957929,0
7.191123,194.848309,23161.226048,7.127732,335.687743,430.328839,14.122083,66.894691,3.938412,1
7.099206,197.088489,21894.972463,7.046327,333.909283,421.578736,14.30858,66.206079,3.981764,0
7.056312,199.018471,20946.437276,7.055567,330.409137,426.601723,14.12291,66.892399,4.012885,0
7.177728,197.345865,22409.373414,7.212817,332.07107,431.479954,14.561971,66.466086,3.948068,1
7.076853,197.503627,22091.898272,7.070278,334.235701,440.665751,14.352205,67.046462,3.959924,0
7.209083,196.568438,21253.105192,6.968576,330.903085,427.236116,14.194073,66.781868,3.9874,1
7.071033,196.098365,21254.757514,7.111444,337.57626,431.179698,14.322218,64.840434,3.958632,0
9.314522,203.34165,23087.217659,6.437071,297.566764,373.044172,16.402773,79.163456,3.09294,0
7.210774,163.047283,14230.419131,7.352941,324.095726,441.524088,9.79301,89.919916,4.462408,1
7.164185,193.825421,22364.579241,7.200721,333.106088,425.86837,14.2925,67.609262,4.010241,1
7.101856,196.404584,22266.400005,7.113103,337.683208,426.153182,14.392863,65.480126,3.938777,0
8.034012,197.609392,25204.674082,6.501097,330.552173,490.8215,15.107289,89.800947,2.452121,0
7.181544,193.778459,21359.293292,7.124407,332.124636,432.405209,14.679191,65.661638,3.971259,0
7.006583,198.581659,22677.94253,7.080244,332.491383,415.660602,14.367846,68.142538,3.945288,1
7.101932,196.360059,21833.054533,7.087896,336.653542,424.728799,14.193699,65.721887,4.038428,0
7.251088,195.314439,21798.213798,7.003555,332.793978,428.882732,14.56879,67.682253,3.932623,0
7.144116,193.335987,22481.221933,7.11254,331.77272,422.598018,14.029445,67.039666,4.020686,1
8.433443,224.856089,12833.461241,6.179496,327.533276,411.849949,17.400426,72.917305,3.824734,1
7.177965,197.516854,22098.435746,7.24128,331.51502,419.92238,14.38314,66.97968,3.95728,1
9.396148,224.753957,25825.387005,7.391299,301.615064,503.793691,16.876927,58.974053,4.606058,0
7.058866,191.548401,16473.067089,8.435789,367.85318,462.993729,12.57442,17.527765,3.937334,1
7.018182,196.884912,21914.218534,7.15285,335.193652,427.021482,14.567286,64.292761,3.966823,0
7.071678,198.288686,22027.574364,7.245581,331.473308,421.270497,14.551109,66.207134,3.986334,1
7.171013,197.041315,22688.433227,7.16914,334.720172,424.372988,14.223346,66.26984,3.977678,1
4.187491,208.374188,21809.709834,5.846112,327.474203,264.508083,11.235144,46.682597,4.592959,1
7.039127,196.245542,21417.81493,7.102981,329.479572,428.632841,14.256458,66.784282,4.052834,1
7.763415,193.721119,20019.261215,8.344391,373.59779,375.072875,11.43598,28.993636,4.113536,0
7.287624,197.527626,22145.171869,7.141449,332.708158,423.86112,14.550684,66.324153,3.972531,0
7.09137,195.531994,20855.412774,7.142582,332.638231,433.640053,14.369922,66.28718,3.97021,0
6.987042,169.727116,19472.624328,5.017698,366.01892,425.670964,17.314681,48.882198,4.475161,0
4.815767,217.687093,16392.135069,7.46117,278.742296,481.480828,15.517296,77.693374,4.375224,1
7.163185,193.123141,22094.727337,7.194269,331.252577,421.132298,14.346758,65.273455,3.984505,1
7.080442,194.244154,22894.024735,7.188132,328.151637,426.079526,14.244631,65.380912,3.977959,1
8.675193,200.735941,15049.584199,8.630381,356.805465,441.298088,17.853054,74.586511,4.978575,0
7.106406,196.446889,22684.010619,7.213286,333.822532,426.22418,14.38705,66.652733,3.947356,1
7.127436,196.870027,22310.044623,7.221583,331.255157,427.761041,14.404097,66.996662,3.996558,1
7.158611,197.460431,22359.780731,7.199472,331.163015,429.650951,14.152837,65.57751,3.966481,1
4.281522,188.783577,22330.466787,6.957676,325.160819,306.692504,16.274857,82.595223,4.371167,0
7.225796,196.83951,21996.975868,7.177394,330.488982,412.86461,14.35599,67.194609,3.938911,1
6.984513,194.681394,22790.71346,7.279641,328.509539,428.336041,14.277492,67.187655,3.982871,1
7.075225,196.46745,22392.908417,7.357353,331.060946,418.989527,14.340628,67.06183,3.944841,1
7.070587,196.425706,21516.069183,7.078968,332.238685,422.041347,14.417098,67.573362,3.97601,0
7.125394,194.600802,21895.752503,7.275021,335.023198,428.724997,14.024803,66.88429,3.920977,1
7.054331,197.094902,21676.679292,7.070111,334.388274,423.743601,14.023316,66.353528,3.949609,0
6.658742,216.564702,25172.585759,6.785521,330.517558,620.448963,19.095091,82.244095,3.400988,1
7.044276,195.232706,20548.418321,7.042251,335.342471,430.173007,14.599267,65.075033,3.990628,0
8.809296,226.105901,18140.594271,4.930381,320.799382,350.116686,14.33884,64.334637,3.879054,0
7.212653,198.799155,21862.665986,7.114905,337.360444,432.892901,14.453062,65.518487,3.959624,0
8.801846,205.407825,13121.171943,6.701767,263.482728,399.283562,18.909035,67.963342,4.031496,1
9.467129,169.214408,33365.315416,8.46049,315.960398,449.723952,10.396796,74.326898,3.164188,0
7.096368,194.629963,22046.717828,6.866021,332.439013,429.526249,14.021352,66.680241,3.930639,0
7.138921,196.265701,23303.264361,7.139377,330.28956,432.441999,14.49788,67.158139,3.978754,1
7.118238,197.732496,23084.910532,7.056342,332.492069,426.76983,14.288749,67.715397,3.987372,1
6.957638,194.685711,22346.034704,7.058063,336.558367,429.152007,14.416493,66.908686,3.894032,0
6.968698,197.060798,21639.458291,6.911546,334.28315,422.313946,14.163197,65.823269,3.977428,0
6.982793,198.678197,21407.670861,7.100173,333.435689,425.71171,14.641458,67.522334,3.940704,0
7.235591,196.824726,21461.804828,7.020719,335.705435,431.871071,14.502994,65.571542,4.004704,0
7.05859,197.43725,21352.72829,7.173745,330.296948,428.692351,14.453268,67.043745,3.937677,0
7.011747,194.926838,22449.65904,7.276239,327.444784,425.314617,14.678262,66.744739,3.934672,1
5.840812,157.882575,16087.26971,9.458,277.540449,550.137405,11.870382,52.247067,5.049464,0
7.034576,197.907979,21293.851286,7.113378,333.287739,424.851213,14.02924,66.996611,3.965143,0
7.061172,198.095411,21294.347618,7.033008,332.662864,427.65305,14.494333,66.1789,3.883255,0
7.14295,196.126904,21477.195866,7.202856,335.24781,428.312337,14.338393,65.487971,4.00979,1
7.15848,196.063749,20895.046527,7.221148,333.09837,427.622369,14.233768,66.827379,3.989818,0
7.033118,195.441528,21057.991088,7.070941,330.659817,422.307308,14.461809,67.011279,3.956887,0
6.981761,194.875715,21675.149538,7.0488,333.180288,422.272429,14.34348,66.450507,3.897257,0
7.208945,196.543827,21738.284884,7.056903,332.082258,435.320327,14.599818,66.742921,3.964544,0
7.105942,195.131064,21491.230939,7.164502,331.028685,427.507113,14.535167,66.479146,3.878754,0
5.775331,169.728169,14710.722831,7.261811,359.266962,535.65256,11.772464,67.297199,5.16426,0
7.014702,194.292076,22419.414998,7.287178,333.400113,426.325113,14.404549,66.381285,3.962209,0
7.02934,195.537229,21455.374859,6.925804,332.05673,422.532838,14.640388,65.660768,3.983602,0
7.034412,197.02547,22554.204363,7.135382,330.344491,422.620822,14.416925,66.513206,4.015489,1
7.118581,195.022774,22752.375819,7.181337,328.538662,421.34849,14.51015,67.879034,4.027045,1
7.130894,195.739931,22033.318997,7.08128,330.977229,423.688068,14.452686,66.516559,3.901149,1
7.26026,196.191971,23003.646028,7.324391,330.539345,426.66062,14.240289,66.882548,4.021757,1
8.57674,221.150258,24897.286602,6.222626,341.80921,389.292785,15.952132,36.082583,3.916115,0
7.005,199.770588,21860.701562,6.992905,335.283534,432.25,14.34079,66.356388,3.961722,0
7.28563,197.696199,21844.524744,7.285065,331.736665,422.234073,14.386255,65.811078,4.017294,1
7.15209,196.546354,21432.497003,7.059278,334.181323,427.930929,14.466035,66.154423,4.001705,0
7.06789,198.876646,22673.144746,7.194453,332.532934,418.985063,14.342407,66.226496,3.992102,1
7.158475,193.982005,22439.193434,7.060198,333.649473,425.388905,14.282626,67.10355,3.957032,1
7.362737,185.692181,16268.448606,5.317019,316.918648,419.258448,16.024246,64.678914,4.408513,0
6.978378,194.539238,21301.251175,7.14259,336.360861,436.328484,14.09451,65.992292,3.900363,0
7.73288,189.509811,47022.745845,8.226725,287.087053,567.722281,14.980054,71.206209,3.510728,1
7.004845,196.924893,21640.983051,7.17726,334.061324,426.558939,14.629164,65.241794,3.965397,0
7.036306,199.313545,22563.81721,7.146022,334.137447,426.581376,14.492324,68.196774,4.01081,1
7.029122,196.148551,22419.540564,7.156767,329.240947,426.294439,14.428591,67.021001,4.007905,1
7.130176,197.682036,21504.401943,7.099736,330.724725,420.546678,14.070712,66.617154,3.974321,1
6.465094,241.268138,43958.67813,7.420155,306.020393,544.600567,20.768986,89.646506,3.790524,0
7.188969,195.635937,22333.981564,7.268915,334.40388,424.864086,14.274341,66.356409,3.915199,1
7.234184,199.71938,21623.87286,7.249697,330.708825,426.440559,14.418261,66.230251,3.927315,1
7.05092,198.804155,22086.095183,7.108552,335.599071,424.863192,14.428621,67.47047,3.97857,0
6.996259,195.615623,23699.339702,7.151882,329.448043,422.40605,14.43539,66.776122,3.968113,1
7.088694,194.46658,21013.115746,6.973817,337.326922,429.242544,14.220823,66.620584,3.993645,0
7.091759,199.683056,21504.116296,7.095232,333.084281,429.68288,14.49553,66.057445,3.923644,0
7.081677,194.472517,21964.787559,7.208377,327.653033,424.822852,14.24834,67.839658,4.012933,1
7.031147,193.013677,21509.351429,7.088043,331.244563,418.976634,14.434953,66.627577,4.009138,0
6.967861,183.933476,13401.044394,6.457687,371.788364,433.239429,14.584231,66.029156,4.893215,1
7.180907,197.004907,22929.169376,7.200755,333.900468,421.274172,14.232691,65.30843,4.076086,1
6.967575,194.666252,21574.832532,7.01331,333.816229,428.333241,14.388391,66.66937,3.95886,0
6.988564,195.273934,20963.303215,7.018871,334.911241,427.552633,14.303246,66.346738,3.967062,0
6.72958,242.164146,17975.553227,9.808651,322.235101,440.859435,13.571223,62.179477,4.003458,0
5.893103,239.269481,20526.666156,6.349561,341.256362,403.61756,18.963707,63.846319,4.390702,1
6.997975,193.238572,22153.431451,7.067286,333.091329,423.517729,14.107444,65.950726,3.926242,0
7.035396,196.361157,21449.663731,7.156962,335.720282,429.455207,14.347497,67.738809,3.937762,0
7.813068,183.69748,9812.122463,7.607639,400.373526,539.610797,12.348083,90.390277,4.713719,0
7.010106,195.703416,22601.939794,7.183842,325.444008,424.521602,14.297624,67.103806,4.016731,1
7.046334,198.991294,21611.353898,6.965031,333.165048,427.032517,14.400118,64.856436,3.960955,0
6.919726,194.859,35558.731647,6.371978,299.786711,394.829326,11.983961,69.853135,4.120828,1
7.571684,173.008338,8835.555876,9.566105,436.294071,305.834487,11.009592,92.481885,3.920288,1
7.165475,196.850962,21152.605073,7.127061,333.273664,426.040563,14.283977,66.529248,4.006942,0
7.145804,198.295285,22074.804356,7.06419,334.997527,424.194323,14.345318,65.918495,3.972927,0
7.097076,196.036879,22462.947903,7.297764,332.976702,431.992968,14.150244,67.473885,4.04227,1
6.874678,196.297958,21156.627485,7.020666,332.014961,434.258245,14.010382,65.104445,3.920023,0
7.252749,196.461069,22223.087107,7.153418,335.01176,425.632266,14.079597,65.349611,3.924009,0
8.309228,198.3369,24344.966693,8.34351,278.866835,456.530019,15.514119,64.444751,3.756397,1
7.090993,194.582878,21101.272888,7.004393,334.438067,426.048255,14.263091,65.625701,3.91925,0
7.110539,195.789535,21917.804388,7.23142,335.822998,426.857845,14.474551,66.26643,3.912648,0
7.050407,196.845651,21746.459961,7.072482,331.475175,427.688983,14.493039,66.917505,3.928193,0
7.028829,196.288721,22217.250218,7.101948,331.909144,420.430717,14.15135,67.943147,4.072524,1
8.419971,185.718989,13237.989605,3.998266,308.142639,463.647277,17.209565,48.783112,3.962478,0
7.079809,195.65087,22405.172545,7.226835,329.890062,428.537281,14.257696,67.692881,4.014427,1
7.28546,195.387963,21931.744215,7.16898,334.271282,428.577472,14.108109,67.335123,3.9573,0
7.03915,199.664285,21477.580271,7.138072,333.768088,430.925338,14.325428,64.77402,3.917975,0
7.077874,220.67054,23873.37821,6.18184,341.987234,333.050786,10.661799,90.29777,4.764508,0
7.159398,171.816105,28954.801012,5.81709,357.328759,530.526411,18.117042,79.09444,3.254926,0
7.064416,196.290791,22754.9647,7.226265,331.154333,423.876519,14.090157,66.9536,4.022801,1
5.620533,226.987836,27852.097439,6.521471,309.228091,414.061545,16.932911,78.439251,3.439476,0
7.266599,98.452931,36490.143032,7.138814,423.187485,502.883067,7.360772,76.290285,4.952733,0
7.27587,199.736277,21919.892851,7.103334,335.690351,424.895058,14.34288,67.83226,3.931253,0
7.067422,193.087431,21640.411953,7.238826,325.163435,423.691769,14.319766,66.400225,4.037411,1
7.107944,196.078239,21904.224132,7.123909,334.283381,427.577994,14.353015,65.459432,3.896874,0
6.952658,195.849234,21378.848822,6.999456,335.45001,432.895705,14.437375,66.578488,3.988788,0
7.160621,196.662571,22367.726272,7.217314,338.897878,422.425628,14.300636,66.787035,3.974332,1
4.923179,208.406673,15990.149228,5.648146,349.655175,404.405763,11.403372,84.525775,3.329601,1
6.964749,196.440082,21867.944542,7.0807,337.579714,428.368341,14.340041,66.902318,3.952836,0
7.058362,195.146948,21397.433003,7.142362,333.461518,426.129072,14.240503,68.2568,3.987109,1
7.01651,196.390748,21418.36707,7.038176,334.529184,423.503727,13.939286,65.78748,3.90869,0
7.093261,192.897081,22150.887213,7.170067,334.997136,432.594328,14.501749,65.492105,3.979828,0
7.164749,200.67741,22165.317934,7.074818,332.475608,418.056667,14.198937,67.489643,4.008056,1
7.121976,195.388681,22685.921484,7.149541,333.551055,429.131696,14.289833,67.566589,3.951783,1
7.124516,196.399029,21172.842699,7.093304,332.279381,432.439215,14.427419,66.654078,3.91178,0
7.131146,197.178478,21211.13368,7.157138,334.749232,425.949282,14.731283,67.614656,3.979371,0
7.198586,196.059821,21606.801404,7.168656,331.806897,430.028047,14.485663,66.77852,3.892173,0
9.44513,145.805402,13168.529156,9.444471,310.583374,592.659021,8.606397,77.57746,3.875165,1
6.828106,196.776807,21992.984612,7.111331,333.346033,426.324545,14.267768,65.476321,3.963785,0
6.979557,198.085126,21659.142343,7.162217,333.283464,423.323014,14.404495,65.318695,3.988167,0
7.094074,197.001353,21318.844024,7.108485,333.850175,428.85667,14.458968,66.220961,3.960186,0
7.173121,194.01689,22240.977378,7.103304,333.615418,420.495426,14.282984,66.204652,3.956231,1
7.015923,195.619613,22628.970465,7.268155,332.449599,423.41237,14.373377,65.93569,4.026773,1
7.208196,199.799409,22601.287131,7.293862,329.566035,429.739309,14.019897,64.034372,3.982002,1
7.141739,194.022094,22101.357558,7.048483,333.005563,429.235131,14.382746,66.81673,3.942087,0
7.079402,195.750067,22503.523243,7.21346,328.602731,438.008727,14.410664,67.838729,4.038363,1
7.18651,198.891893,21539.091645,7.132566,331.304045,419.073019,14.079069,66.738457,4.007377,1
7.679595,200.072928,32000.843911,7.633725,290.740337,583.608398,16.844509,39.367056,3.297525,1
7.035445,195.45933,22308.939795,7.262282,335.99276,424.944857,14.255088,65.227392,3.963068,1
7.086626,196.230152,21266.582854,7.143375,335.056197,420.183517,14.155178,66.305267,3.898632,0
6.943883,196.439827,21402.568845,7.135394,332.36613,427.525068,14.586597,65.44353,3.880602,0
7.040464,195.244447,21654.657545,7.054123,337.789691,423.78305,14.564968,66.483375,3.907543,0
7.184114,193.409007,22155.318787,7.201365,333.292895,423.722992,14.444325,67.666213,3.975752,1
7.256901,196.058602,21825.308097,7.045932,333.787915,422.247424,14.106995,66.357832,3.935578,1
7.116063,195.830257,21989.24802,7.258497,333.532728,423.454939,14.754726,66.522189,4.006814,0
8.892998,224.078183,22960.180644,8.982036,274.689459,466.24548,9.693049,59.577212,3.619133,1
6.977744,166.845574,18622.444796,6.609706,353.339919,333.968568,12.53456,48.463588,3.530623,0
7.071282,192.857802,22046.172576,7.137261,336.117454,411.92592,14.399142,66.747442,4.021914,1
7.096885,196.538245,21408.702491,7.15639,332.208053,429.211386,14.266871,66.772439,3.954223,0
7.218202,195.66398,22033.494514,7.083851,332.36809,426.061198,14.251316,65.322363,3.965281,0
7.15646,196.599369,21380.045566,7.088844,332.97303,436.311009,14.328664,67.141786,3.97209,0
7.082337,190.989391,21492.80136,7.197939,331.98568,420.823562,14.138968,67.390723,4.000371,1
7.066142,198.634339,21812.915046,7.140163,334.626607,426.546634,14.478027,67.631968,4.005779,1
7.029206,192.475802,21639.522018,7.04955,332.276367,423.553878,14.282231,65.734726,3.961398,0
7.029908,195.498296,21288.010837,7.047328,335.206035,429.109194,14.519024,67.635728,4.015457,0
7.291957,202.329044,21891.677159,7.628747,339.829014,379.270122,7.654956,64.021523,4.237644,0
7.07065,196.375821,21903.4885,7.245052,332.788933,425.601708,14.305632,66.215875,4.01129,1
7.081722,195.34563,21738.874546,7.126986,336.52858,418.829509,14.236128,65.8173,3.918263,0
7.123332,200.347683,22522.117034,7.063087,332.397286,422.662901,14.2411,67.546895,4.016321,1
7.051805,197.404412,22495.388856,7.162042,334.10111,427.094262,14.184883,67.702303,4.01985,1
7.045062,192.849705,22891.876353,7.03148,333.36304,430.954361,14.484055,66.576287,3.966216,0
7.077345,194.893168,21993.115102,7.05269,332.23159,428.549412,14.210799,66.692613,4.072764,1
7.240853,195.99199,22793.702494,7.283332,335.886814,429.233032,14.289477,67.363955,4.041113,1
4.270716,166.837709,24405.250535,7.39151,297.206739,349.51891,13.478526,54.47484,3.763906,0
7.121212,195.118355,22765.154416,7.15291,331.811563,431.316548,14.523326,65.622373,4.020168,1
7.175509,198.623518,21909.347717,7.093829,333.398267,420.240216,14.374365,66.822928,3.954252,0
7.123652,195.365926,22387.827677,7.213725,333.891276,422.416103,14.143948,66.094163,3.995738,1
6.963113,195.353904,21961.044149,7.237199,335.145654,426.349091,14.41445,66.192335,3.983496,1
7.166655,193.746455,21421.142306,7.143252,334.859044,423.59848,14.491095,65.702678,3.944989,0
6.883015,210.502217,14298.410462,7.243683,316.753889,570.424259,15.958334,70.615832,4.102292,0
7.031335,194.828421,21495.119556,7.189188,332.27707,430.751687,14.206627,64.343032,3.935667,0
7.097169,198.308988,21859.54867,7.105564,332.138624,429.018111,14.38189,66.243243,3.97132,0
7.055812,193.7712,22607.477014,7.146383,328.867304,425.382943,14.121007,68.108529,3.996758,1
6.300002,172.350281,40682.143998,4.242829,302.611858,485.672456,18.737931,64.808546,3.709437,1
7.009702,191.111654,22121.694761,7.074151,330.726225,426.371993,14.169794,68.128412,3.981387,1
7.005113,194.059021,21726.315077,7.056014,333.072507,431.067204,14.268195,65.37206,3.942064,0
7.099816,193.216572,22443.248659,7.153177,333.193205,423.687326,14.328487,65.987746,3.974689,1
7.054767,196.839018,21581.54599,7.058226,333.439348,426.623015,14.478552,66.672856,3.977529,0
7.129165,194.154149,21817.869234,7.186777,332.189975,427.115312,14.300765,65.800107,4.018769,1
7.061029,194.441756,21859.456127,7.095788,331.127391,432.328452,14.359076,65.507103,3.9598,0
7.100934,196.762331,21435.930542,7.216866,334.813206,425.421989,14.585357,65.754039,3.958693,0
7.171186,197.270222,22096.460243,7.173967,336.223692,421.171872,14.403616,65.672539,3.921368,1
7.123641,194.628662,22323.349798,6.987694,335.268649,426.057822,14.513042,65.63517,3.998524,0
7.976901,234.77938,15360.835068,5.736027,377.178119,613.633548,14.191274,48.915881,4.753608,1
6.919724,193.97813,21759.960757,7.155605,337.901304,429.073989,14.175242,66.118087,3.983712,0
7.209037,194.85375,22882.957147,7.370844,330.97365,424.392575,14.358112,66.631535,3.96262,1
7.125779,195.674145,22199.758747,7.068483,334.853953,427.064739,14.67387,67.248155,3.970351,0
7.10888,197.531467,22252.458249,7.180129,335.090413,421.709435,14.47321,66.371876,3.981631,0
7.183826,261.8508,14100.968987,9.008495,358.724702,290.423838,17.149907,82.025116,4.597166,0
7.167311,196.602344,21452.860224,7.21741,333.123854,434.452092,14.369648,66.406734,3.978326,1
7.133414,197.263793,22071.949264,7.192079,335.45602,425.788809,14.296718,67.597479,3.932736,1
7.087898,195.859367,22439.10724,7.161278,330.575276,431.919644,14.29166,67.244079,4.029344,0
7.058415,198.742174,22522.03067,7.277392,326.158684,418.620248,14.028517,66.174776,3.933955,1
7.028605,194.979298,20704.784397,7.165522,334.438172,426.51751,14.404564,67.229619,4.003143,0
7.049534,195.596727,21607.327098,7.039808,333.377491,430.769735,14.259787,65.564749,4.035039,0
7.073836,195.613582,21873.136414,7.043512,334.015592,419.151802,14.48372,65.657982,3.973061,1
7.15144,196.235182,22204.425573,7.06696,334.384763,422.710661,14.265834,67.286056,3.823643,0
6.927388,193.468525,22329.270468,6.954679,334.343769,427.427262,14.501541,65.430818,3.935462,0
7.110536,196.583808,22071.119255,7.279382,336.458967,424.232945,14.176634,66.275171,4.034693,1
6.63299,238.324751,12829.092778,7.347361,331.301877,451.734417,19.640923,73.201544,4.360851,0
7.090192,195.268238,21332.284887,7.149261,332.76081,429.062027,14.209622,67.033801,3.973965,0
7.11498,192.508014,23407.159017,7.149359,332.616448,420.055936,14.039361,66.66238,4.042743,1
7.104576,196.214936,22261.940954,7.187979,333.906143,429.370245,14.231264,65.686737,3.951949,1
7.198108,196.404586,21998.947586,6.988427,332.919664,431.047426,14.253169,66.888098,4.029056,1
7.061654,194.223573,21568.583507,7.022364,331.029522,431.103074,14.188208,65.411411,3.89082,0
7.040642,199.388712,21450.480487,7.04241,334.717996,431.464867,14.374806,65.818327,3.967608,0
7.078349,192.345061,22684.549693,7.147162,332.929779,421.012695,14.565055,68.255204,4.026508,1
7.090896,195.605838,21836.351225,7.222706,330.397493,422.902753,14.39237,68.134468,3.988947,1
7.185292,194.913748,21794.670815,7.22304,329.84372,426.429864,14.397066,67.29236,4.01759,1
9.264391,160.428694,19607.754919,3.988749,416.698385,427.793834,14.99299,95.8048,3.175521,0
7.113207,196.887089,21512.887519,7.000057,333.550744,427.003961,14.535927,66.197879,3.8882,0
7.088107,194.991041,21498.51582,7.009737,335.600434,427.475264,14.509561,67.671422,3.954666,0
7.028983,192.028749,22979.816891,7.103738,329.95356,423.957441,14.500679,66.27425,3.953148,1
7.060276,199.205441,22819.88201,7.28799,333.669743,422.744779,14.260302,66.276014,3.97468,1
5.33194,194.874065,16658.876503,7.99383,316.675162,335.120398,10.180514,59.572714,4.43482,0
7.068171,197.627982,22536.620758,7.158891,331.030779,432.556561,14.181157,66.115205,3.948633,1
7.24173,196.145104,21020.776758,7.341297,335.231426,424.013806,14.298911,67.749401,4.00975,1
6.885712,196.67368,22282.30996,7.167975,331.431168,427.626971,14.669878,65.875624,3.885941,0
7.317631,197.606124,21449.111226,7.103102,335.6649,419.802856,14.239014,65.926953,3.959156,0
7.879543,170.190912,37000.955674,6.217223,346.063677,517.576762,15.87177,68.911185,4.066229,0
6.990679,194.615349,20978.419628,6.990001,335.551947,431.942521,14.526342,65.586186,3.975474,0
7.134115,198.784802,21809.762589,7.169316,333.720797,420.040514,14.283505,66.660603,4.036059,1
7.109754,197.254647,21112.209261,7.127522,334.556963,426.455659,14.363109,65.143144,3.959335,0
7.126527,195.738184,21450.194908,6.965903,336.387993,424.591392,14.471233,65.577869,3.948258,0
7.143392,197.237756,21203.634368,6.949721,334.933063,430.94328,14.394489,66.855575,3.95851,0
7.109069,196.059023,22680.582697,7.201148,333.317288,414.027721,14.225735,66.802806,3.986865,1
7.056718,196.472382,22139.490793,7.125811,334.088121,423.855644,14.59302,66.895465,3.9598,0
5.704765,116.29933,33223.581529,7.050503,297.078153,504.378681,9.00182,48.147031,4.157533,0
7.061362,195.274588,21450.46688,7.27749,330.724578,430.107085,14.078401,65.794628,4.037284,1
7.181549,196.693401,22036.711547,7.097541,332.5379,427.236137,14.241325,66.300834,4.028121,1
7.154247,192.361443,21829.21229,7.087247,335.302569,431.336949,14.389381,67.022174,3.946243,0
6.766487,193.19905,21594.178444,7.054098,334.677039,424.180605,14.09375,67.433979,3.986264,0
7.16818,195.333134,21359.029238,7.160047,333.503147,424.548416,14.422957,66.597273,3.952659,0
6.887401,198.149315,21718.528732,7.06029,332.810835,425.589302,14.264936,64.950658,3.917106,0
7.076341,196.616402,21470.118812,7.168159,334.164863,419.241927,14.158681,68.264441,3.984543,0
6.994773,198.070466,21557.46293,7.160778,333.565412,430.040661,14.345302,65.690894,3.942815,0
7.170527,196.260836,21649.801648,7.221526,332.432352,427.044049,14.211705,64.244523,3.970972,0
7.157368,197.906439,21517.472902,7.229495,333.969374,427.338853,14.218241,65.947472,3.991276,1
7.985406,200.134697,17583.080335,6.771729,296.569823,377.584203,10.289288,66.890747,4.752452,0
9.001823,263.514188,15379.912763,6.473674,355.006426,561.687003,22.045457,61.514342,3.976873,1
7.2248,194.252069,22183.913554,7.053927,333.642019,429.206308,14.614601,67.684947,3.97739,1
7.132819,198.283969,21909.085525,6.978701,337.073932,432.665158,14.324829,66.532033,3.956815,0
6.306864,220.96998,22418.908189,7.153364,283.975993,350.909227,19.861382,61.836185,4.619173,0
6.395359,133.834229,23827.275015,5.127747,266.908428,573.400295,9.833875,95.026609,4.191218,0
7.166882,193.90197,20933.418642,7.091421,336.982912,427.861093,14.418958,66.129425,3.952118,0
7.09826,194.753837,21555.846741,7.137464,335.166639,428.804984,14.48573,65.978093,3.938886,0
6.965292,195.527329,20412.709007,7.085031,333.959819,421.786456,14.367796,65.921577,3.907445,0
7.565198,213.428269,11246.426646,8.208678,377.221672,341.716459,15.669955,67.230057,5.185,1
7.067112,192.835199,22000.086896,7.099644,332.921766,429.946093,14.237727,66.241477,3.977675,0
7.109233,195.42799,22420.207985,7.051962,334.047934,430.032135,14.037333,66.179839,4.000265,1
10.893485,177.734357,25702.518673,7.65983,312.399335,383.199585,17.472109,42.81457,3.63497,0
7.114944,198.221795,21915.591309,7.16977,332.805265,424.354841,14.209632,67.104089,3.904021,1
7.164717,194.621058,21613.277197,7.186931,335.552851,429.081187,14.724336,66.414434,3.929192,0
7.109798,197.003908,21757.533506,7.23536,328.932825,432.229209,14.415397,67.251175,4.069186,1
6.977223,192.050652,22012.06579,7.218199,332.711125,426.054207,14.082789,66.523111,3.987935,1
6.933114,195.209369,22499.174693,7.116894,330.289639,426.831235,14.286254,65.951504,3.883376,0
7.009139,196.404611,21925.784814,7.028161,336.584645,425.852739,14.633311,65.826883,3.962724,0
7.186171,195.676957,21757.576311,7.052055,335.764484,429.174167,14.534945,64.93183,3.943648,0
7.895046,174.692685,10465.261601,7.668315,350.535418,472.042912,14.633909,60.862234,3.084431,0
7.238597,196.417995,22569.593387,7.158002,331.503275,422.606516,14.027866,65.455532,4.067017,1
6.168839,238.301048,24827.516641,7.720011,269.490173,482.673327,22.09199,79.169281,4.43576,0
7.103228,195.617183,22020.317063,7.303189,331.997411,423.112318,14.470984,65.939133,3.86821,0
7.118805,195.890172,21104.474409,7.033827,334.901096,430.179985,14.315485,67.278107,4.005923,0
7.146379,197.67784,21612.758716,7.0528,333.536995,417.612391,14.143262,66.436482,3.966789,1
6.078336,197.501912,35957.792183,8.130472,379.527706,360.060477,20.098413,41.86596,4.201581,0
7.140163,195.224181,21089.87268,7.216638,330.355134,418.962957,14.163362,67.135706,4.018811,1
7.021109,195.476424,20892.420498,6.965117,331.391952,424.049214,14.104139,66.434242,3.892148,0
6.993632,195.630193,21517.394509,7.111815,331.945554,424.157726,14.436517,66.984451,3.980053,0
5.915807,195.744074,12431.80311,6.661616,380.725336,367.854025,21.300647,90.394895,4.513201,0
6.810467,209.735559,32602.340084,7.422781,341.174269,340.030089,16.736749,42.349461,4.40234,0
7.042553,194.140106,22077.839412,7.095899,331.232394,424.764225,14.672876,67.260715,3.956276,0
7.286843,195.889146,21921.026048,7.223393,336.209821,421.300628,14.29068,66.907382,3.955514,0
7.110983,198.273342,22325.657458,7.257999,332.42183,429.101727,14.19721,64.460208,4.030277,1
7.026994,197.899739,21627.960688,7.24562,331.210032,422.449628,14.309911,65.952174,4.050449,1
5.230003,176.714023,27971.891806,7.597981,413.914001,440.355374,14.423614,72.83737,3.045612,0
7.009872,195.390899,22353.098386,7.123287,336.950475,424.435241,14.330467,66.919017,3.956572,1
7.112333,199.100148,22551.054872,7.121678,332.445557,428.758334,14.326619,66.514243,3.92474,1
7.082013,196.264994,22035.518792,7.177652,331.886606,430.26464,14.609586,68.15622,3.991868,1
7.156347,196.703822,22761.175819,7.320186,333.950149,425.932796,14.203821,67.925658,3.962107,1
6.986678,195.573236,22305.267647,7.091496,334.951633,431.829983,14.564589,66.620473,3.99021,0
5.423318,185.903179,18020.842428,6.401046,447.417962,332.050056,7.71574,67.333687,5.224655,0
6.954864,197.63254,21271.306412,7.105797,336.977193,419.306219,14.288093,66.282805,3.977753,0
7.065011,195.355724,22652.458155,7.096047,329.431746,431.871195,14.712986,67.378465,4.042894,1
7.076866,193.46565,23079.634908,7.291522,328.89347,430.907151,14.325747,65.666153,4.008062,1
8.164992,278.340358,29045.261138,7.992914,334.551966,384.783185,17.406626,64.210767,4.162496,1
9.735889,209.761513,10897.150289,6.106567,358.193121,449.36779,13.911645,47.100186,5.57321,0
7.079875,194.098042,22970.453925,7.201224,334.122866,422.71699,14.402425,66.18829,4.009975,1
7.051043,196.649004,21553.56206,7.155678,331.301364,427.376842,14.243395,66.817633,3.982783,0
7.28064,196.931204,22582.677291,7.252917,331.388069,422.44289,14.085926,65.816231,4.047076,1
7.027133,198.132695,22646.01104,7.036989,331.972875,424.842856,14.208771,65.51234,3.991463,1
7.052068,195.54171,21750.070481,7.050839,331.879597,425.059717,14.163772,67.504545,3.962232,0
6.964904,195.873913,21611.539707,7.14034,332.790298,426.371668,14.343844,65.683623,4.043059,0
7.234178,193.836512,22377.143414,7.241228,332.459888,426.368126,14.278623,66.51508,4.089408,1
7.124528,198.383888,22765.954619,7.23756,328.644644,419.556286,14.323595,67.004348,4.042356,1
7.11892,192.74085,21393.822245,6.983016,332.408917,421.362296,14.3013,65.988148,3.961985,0
6.988495,191.782553,21517.98464,7.191998,330.881333,423.168913,14.203522,65.806408,3.969484,0
7.011292,197.663489,22946.727118,7.163036,332.860833,424.761988,14.418401,67.101908,4.012537,1
7.058313,192.675669,22874.384728,7.238503,333.404753,427.435726,14.303338,66.545904,4.045695,1
7.12584,195.379565,22035.592107,7.087677,332.585292,426.204629,14.353103,66.471801,3.997364,1
7.035416,196.603489,22028.057314,7.059011,333.120611,422.71748,14.111371,66.479912,3.891449,0
6.528491,184.42916,10835.201157,6.826331,378.77572,430.418787,13.621325,100.821792,4.585972,1
7.186249,196.11985,22608.955063,7.194673,330.159352,420.301308,14.293858,66.585846,4.046742,1
7.263849,195.488123,22457.277159,7.102622,337.592192,428.854829,14.359783,66.926784,3.906618,0
7.014774,196.523239,22392.101151,7.247246,334.309019,431.134436,14.445871,65.838786,3.968956,1
7.034698,194.645405,21734.461724,6.997675,334.674381,428.232259,14.668506,67.411061,3.975694,0
7.152419,195.210828,21623.469747,7.070187,333.855896,427.182325,14.189044,66.731171,3.999996,0
7.056482,195.051978,22088.210802,7.222368,332.983194,424.005645,14.372135,66.13719,4.071525,1
7.207516,197.858522,22766.546757,7.083566,329.80375,428.317042,14.449118,67.012036,4.003531,1
7.168539,196.769291,21535.679488,6.963176,334.707003,427.747033,14.601252,66.271269,4.012,0
7.688786,209.185625,29568.535852,9.817336,294.347732,355.698613,13.918769,71.68154,3.918673,1
5.622807,194.463239,16119.34019,6.907987,336.648207,408.459081,16.364724,76.631186,3.992957,0
6.323942,185.992411,23234.788934,5.892963,347.236827,401.304895,13.263282,60.474031,3.575011,1
7.049586,194.084484,22667.816943,7.15103,333.132413,425.515483,14.568831,66.406213,3.967984,1
6.955956,195.943793,21341.656504,7.119412,331.734917,427.099019,14.432815,67.563151,3.95803,0
7.126872,196.718703,22418.464464,7.078421,330.206241,427.403603,14.369918,65.787613,4.004183,1
9.864727,278.081446,12978.197126,6.908572,319.382002,486.637938,14.351341,84.798792,3.701895,0
7.109529,195.406255,22724.622377,7.191575,329.772585,425.939657,14.141464,67.914454,3.98429,1
7.179588,195.596087,22012.228834,7.067591,330.418549,423.442741,14.270042,66.943937,3.987105,1
7.11677,196.378141,21624.675305,7.073384,332.398865,427.694246,14.26301,66.011649,3.913416,0
7.096828,199.681352,21409.726809,7.057363,334.302924,435.63957,14.200005,65.456609,3.971236,0
7.073416,191.514928,21262.035435,7.129168,333.410292,431.461409,14.316878,65.561203,4.001126,0
7.026499,195.118387,22645.280727,7.116629,331.187842,426.005401,14.32,66.60598,3.964914,1
7.192266,196.743928,22592.25382,7.218204,333.186578,433.787009,14.249589,66.622874,3.911739,1
7.051622,196.253571,20750.843472,6.929261,334.877901,427.722743,14.439259,65.951711,3.902308,0
7.136083,196.41475,21794.703875,7.148979,331.492142,421.711063,14.304895,67.729856,3.944284,1
7.085141,197.929959,21429.345519,7.126396,332.049882,418.480338,14.319094,65.742729,3.951579,1
6.942342,193.557706,22248.473839,7.113994,334.145332,435.417577,14.506722,66.365328,3.959759,0
7.051203,196.882838,22433.089288,7.185416,332.242443,426.474102,14.415502,67.497798,3.998187,1
7.018204,196.881056,21127.81619,7.005016,336.237771,432.317604,14.323893,66.175858,3.93868,0
7.094233,195.365973,22156.423046,7.25714,337.070878,420.820496,14.642299,66.985374,4.004384,1
4.293961,192.360737,24600.760691,8.261635,261.357041,475.876415,10.799428,53.619847,5.105121,0
7.115011,194.466403,21753.101251,7.025097,335.760709,432.242572,14.42915,65.513265,3.984682,0
7.076809,192.806449,21175.993927,7.122307,331.294888,430.05619,14.465294,66.25792,3.982032,0
7.112943,195.534756,22148.560945,7.058351,330.957627,427.604563,14.169222,65.4991,3.944049,0
5.161879,179.636409,18666.563638,5.196133,400.896023,485.311954,14.059708,75.82205,4.320101,1
7.084568,198.759645,21624.697851,7.067233,331.650706,428.370373,14.506335,66.275309,3.945338,0
7.130675,196.082994,21723.435491,7.254115,332.564464,423.968882,14.402993,67.721032,3.928291,1
5.921247,200.94373,17397.402858,6.7562,279.202307,380.499818,11.255357,31.966297,3.746776,0
7.062619,195.729873,23153.35034,7.095729,336.240959,425.082658,14.436567,67.720846,4.045397,1
7.003758,197.414631,23270.712583,7.186429,333.307838,424.811432,13.775511,66.996261,3.958157,1
7.142474,199.064789,22713.229432,6.941717,331.830012,427.834889,14.503709,66.397784,3.967217,1
7.083826,197.14145,21881.285065,7.078517,328.76147,418.780932,14.155235,66.807545,3.934907,1
7.162806,195.584554,20888.099705,7.204603,334.518198,425.460851,14.46627,66.863989,3.964048,0
7.058481,196.436927,22136.051893,7.103412,336.605253,432.556305,14.130882,65.638472,3.963224,1
7.811512,258.891601,20911.904666,6.361756,289.142175,421.133035,9.63165,71.703227,4.54607,0
7.155111,194.832763,21976.09487,7.024303,336.873764,433.160547,14.257355,65.023033,3.999967,0
7.129699,195.072981,22127.406658,7.284657,333.362672,421.170426,14.275392,67.522595,3.990256,1
7.274198,156.110829,16255.901371,7.65455,381.180466,591.801472,12.312493,59.680518,3.152763,1
7.178284,197.604438,22481.502406,7.24405,332.245615,432.974236,14.234448,67.489894,4.00693,1
7.256084,197.609286,21432.163866,7.101244,335.466296,419.883264,14.264989,66.601658,3.987866,0
7.107967,195.947934,21849.24107,7.146302,334.273281,424.758965,14.49106,68.763065,3.937821,0
7.146307,195.944693,22028.008933,7.126073,333.438207,431.396292,14.404112,65.660375,3.926493,0
6.095512,200.045818,16404.94142,6.392095,366.017336,444.454211,16.029989,72.301702,4.302016,0
7.100828,197.176208,22532.560784,7.324526,329.293855,423.938459,14.224031,66.615472,4.013162,1
7.138133,196.95187,21510.976198,7.045177,335.958547,423.973227,14.392355,67.493601,3.9543,0
7.168478,194.456871,21457.375337,7.169741,330.717451,424.496209,14.076387,66.246021,3.953888,0
7.069283,194.911867,21050.144732,7.026667,330.650367,440.436568,14.368323,67.808989,3.908125,0
7.04158,197.532013,22565.608265,7.317404,332.893462,422.610965,14.20819,66.68923,3.944973,1
7.012983,194.947403,22096.424389,7.154554,332.561197,427.463428,14.52772,67.35025,3.917919,1
7.027571,194.214249,21304.847014,7.161362,329.813038,427.969485,14.384513,67.198938,3.910271,0
7.017764,199.152111,22648.49593,7.065082,333.737012,428.326363,14.354357,66.728365,3.928848,1
7.06941,198.777356,22564.876961,7.228817,336.145508,423.397368,14.381628,67.195939,3.962464,1
7.617033,242.989402,17681.272357,2.85579,298.413238,549.987318,10.065225,76.51317,4.299543,1
7.103863,195.99407,21779.322018,7.178742,330.921001,421.169043,14.401778,67.923103,4.023899,1
7.186666,196.855979,22240.114133,7.05797,335.645528,422.003207,14.478256,66.939142,3.903493,0
8.628893,186.637712,13688.074339,6.289036,254.358801,392.706886,12.387633,53.150765,3.07135,1
7.97533,165.714242,17182.450359,7.002192,383.266655,363.853579,18.659304,76.032739,3.306129,0
7.940713,197.049965,10762.938632,7.515815,384.791134,406.116784,16.237265,74.611653,2.990151,0
7.19751,195.308385,22797.755445,7.207473,334.554358,426.775578,14.46749,68.15031,4.022813,1
7.044231,195.027166,21822.719496,6.95586,338.99596,429.896645,14.582466,65.574087,3.921773,0
6.993366,194.333978,21622.771963,7.068662,331.450436,425.946722,14.566651,66.340399,3.911389,0
7.075045,194.892588,21958.645231,7.135777,328.706478,424.030965,14.459881,65.14498,3.976592,1
7.094073,195.160308,21478.166966,6.992741,334.311596,424.365581,14.281031,67.551976,3.902334,0
7.095168,198.484049,20936.753911,7.038065,329.329886,432.043758,14.46764,66.603771,4.038748,0
7.240356,193.680041,22779.859587,7.210562,334.318054,426.701079,14.206696,65.845419,4.03498,1
7.227021,200.281856,22390.85367,7.29632,330.983473,431.521125,14.301842,67.979334,4.014502,1
7.167592,197.518106,22510.279209,6.958497,335.194884,419.008172,14.079617,65.981069,3.876057,1
7.034807,195.687831,22776.33148,7.08555,330.606107,420.015573,14.361968,67.913008,3.98359,1
7.062364,195.308277,22418.15351,7.082881,329.946533,426.368754,14.373578,67.726746,3.990123,1
7.090964,199.155206,22337.468263,7.085269,333.042811,425.625469,14.274114,66.678199,3.950094,0
6.965048,197.192841,22068.353978,7.171613,333.765674,423.933598,14.165607,65.288768,4.027638,1
7.219608,196.145857,21553.105167,7.14081,331.489918,428.803538,14.32731,65.575669,3.919553,0
7.933068,204.724281,12732.888243,7.717187,331.087177,449.685602,15.669628,55.40408,4.534233,1
7.082122,194.595254,21681.684888,7.168983,333.691705,425.895662,14.287617,66.683139,3.894078,0
7.15326,198.462385,23189.492947,7.139504,338.95674,421.063916,14.197579,66.160464,3.975027,1
10.356119,136.323752,48621.563952,9.158704,327.922751,365.720292,17.975564,77.359854,4.201849,1
7.069677,194.013585,21590.593698,7.160844,332.623426,427.125104,14.3611,65.833051,4.005794,0
6.277742,149.563282,15751.44915,8.257751,317.50144,605.398375,15.218378,82.70347,5.255012,1
7.088819,195.256928,21654.424981,7.015296,333.489277,431.264061,14.31395,66.573637,3.971187,0
7.181436,194.575716,21896.973272,7.094074,332.46865,426.528346,14.183083,66.953327,3.972412,1
7.030092,196.955882,22937.179181,7.233546,327.645217,425.991235,14.243675,66.828857,3.984905,1
7.074557,195.935969,21413.347854,7.220884,332.352054,426.374221,14.302022,65.9959,4.009395,1
7.022311,193.849732,22419.209343,7.045845,334.954496,430.847427,14.136276,66.4661,3.97317,0
7.094931,200.325455,21663.515163,7.207553,333.970694,432.525368,14.167242,66.565034,3.927634,0
7.098183,196.086296,23217.188566,7.035322,330.916624,422.456119,14.300064,66.694579,3.980153,1
7.003942,198.448736,22410.741578,7.127035,333.2397,420.248806,14.448056,66.721616,4.012464,1
7.162217,194.427458,21922.271282,7.078076,336.498915,425.829909,14.390682,67.236239,4.012845,0
7.173731,196.008263,21662.914666,7.026537,334.163967,422.353678,14.311302,67.533584,3.925632,1
7.115941,197.813747,21234.540323,7.195721,334.722064,433.158872,14.54152,66.351344,4.051516,0
5.499788,150.07609,43195.473668,6.570596,322.516582,287.286057,11.230408,71.821281,3.66822,0
6.856617,195.84185,22256.503016,7.111876,334.21649,431.103872,14.410618,67.171216,3.948032,0
7.032982,193.776134,21581.429337,7.015898,333.562499,427.842413,14.316036,65.385192,3.955063,0
7.277559,195.751245,22190.798104,7.05512,332.542747,424.809068,14.350888,68.775794,3.966504,1
7.104033,194.066111,21545.959309,7.174534,329.768767,418.524753,14.444325,67.82748,3.990648,1
7.118471,196.634698,21457.959298,6.925333,334.309521,422.180664,14.488282,66.446527,3.985893,0
4.334058,155.82935,13351.41383,8.603927,321.786965,387.521833,7.809445,77.879219,2.613532,0
7.120161,195.644881,21565.879317,7.174823,333.676185,426.284211,14.108479,67.229455,3.950287,0
7.830976,190.799044,7695.063935,4.845205,292.515824,507.445488,15.526658,85.009506,4.588785,0
6.804796,223.995701,17196.054711,7.112622,374.309131,344.718314,15.457383,60.151346,4.847313,1
8.297726,222.436321,20320.108453,7.321859,297.138687,374.119522,15.779233,93.44633,4.166105,0
6.978291,191.858484,26189.647064,7.279433,317.184165,564.647564,19.426893,50.50654,4.931878,0
7.133217,193.702295,21133.168815,7.178048,333.218279,427.981621,14.381469,65.890828,3.970573,0
5.869737,207.725455,22244.218236,6.597764,352.563987,465.616481,14.8381,77.822737,4.689315,0
7.108158,195.355045,21838.06827,7.006573,334.422664,426.92763,14.603898,66.111173,3.936763,0
7.139964,197.677287,22156.158833,7.267765,330.591192,427.754802,14.280647,67.294789,3.958791,1
7.143405,196.452262,21836.358244,7.073251,333.999168,424.78716,14.581605,64.997897,3.985216,0
7.203271,194.838053,21931.580896,7.093455,333.062079,423.630198,14.295215,66.638822,3.984232,0
7.617149,196.606942,27080.268722,7.382755,345.179887,329.016646,8.547283,60.144702,2.39154,0
7.23444,196.052744,22628.989485,7.027055,333.208048,425.268542,14.297244,67.015998,3.987952,1
7.172665,197.123929,22114.592566,7.029057,335.091498,422.486294,14.765943,65.766215,3.919763,0
7.0256,194.854406,22080.791472,7.053594,335.443808,423.129104,14.751869,66.547154,4.032263,0
7.06717,196.702358,20890.76057,7.13788,334.525069,428.910588,14.148,66.534798,4.043519,1
7.966857,186.353361,21440.738848,7.832474,393.767046,461.356227,13.91387,86.121811,5.115431,1
6.947029,168.879539,17540.030217,6.409476,387.299907,372.022817,15.198191,74.007373,2.600188,0
7.804369,216.673869,14160.686766,6.060144,281.355975,468.212537,15.147547,62.860627,4.075557,1
6.701941,168.745414,17176.878951,6.390966,330.674729,404.930726,10.82784,52.112707,4.17945,1
7.202398,198.784037,21419.346911,7.089603,332.734392,425.267156,14.178447,67.674303,4.00025,1
6.98887,194.52697,21829.831651,7.225886,332.21634,421.916767,14.375699,66.036389,4.05194,1
5.284097,185.705492,26532.737255,6.132546,328.139582,543.181748,17.398465,47.066392,4.800963,0
7.145359,195.945279,21492.819885,7.203098,332.62537,429.016898,14.528246,66.534325,3.976993,0
7.543931,192.234541,24227.961139,7.241343,336.15105,369.427699,18.188873,70.588507,3.703191,1
7.052967,193.562903,22280.489326,7.268156,330.160279,430.181414,14.537803,67.506857,4.031323,1
6.931088,196.725594,22278.089082,7.000547,332.712305,422.071921,14.135072,65.868908,4.002856,1
7.001204,196.108505,22929.600504,7.062596,329.177373,431.094077,13.825448,66.931912,3.96633,1
7.202646,197.270474,22223.298457,7.242673,331.071049,425.725364,14.131913,66.146438,3.971743,1
6.576845,156.221768,12772.09575,9.759898,341.749378,418.972467,10.382253,78.30518,3.771314,0
7.156319,193.9609,21960.544376,7.199975,333.55194,428.67065,14.579265,66.60182,4.030569,1
7.182304,192.010392,21654.062869,7.22668,333.448052,430.607061,14.332187,65.347518,3.917737,0
4.921094,162.300594,14126.59053,6.406814,357.815929,337.773051,21.237899,65.704481,3.285187,1
7.097289,196.799259,21486.064415,7.192767,332.329665,432.302601,14.586825,65.591577,3.960461,0
6.998609,195.188109,21429.571215,7.044474,332.892106,426.387884,14.308212,66.222069,3.939642,0
7.058144,195.451842,22847.683551,7.152373,333.458116,426.982787,14.365386,66.488627,3.979829,1
7.338108,188.854169,30042.928506,7.467624,309.61456,465.499871,11.054093,47.183651,3.73638,0
7.255799,200.163795,32595.120244,7.572435,324.551514,489.27216,12.305634,45.687421,3.968177,1
7.022443,196.530455,21543.418172,7.106888,334.659405,427.786031,14.410092,65.705583,3.998546,0
7.114395,195.504815,22120.250096,7.10563,330.969357,429.210709,14.258644,67.283658,3.994625,1
7.071314,213.619625,20038.796417,7.602252,290.057219,605.305041,8.713964,58.41346,4.293727,1
6.977393,192.808434,21526.104627,7.155837,337.433982,426.85246,14.512669,65.564045,3.967854,0
7.129738,195.880535,21025.574601,6.992414,332.291074,427.821676,14.237852,65.764718,4.038062,0
7.108125,198.328696,22061.418739,7.147712,334.342043,428.770991,14.346771,66.90791,3.988793,1
7.176857,194.641787,22226.159897,7.189528,333.479333,423.022286,14.396808,66.646905,4.041671,1
7.14008,194.58576,21489.318983,7.114968,332.220473,426.218341,14.506324,65.908417,3.937484,0
7.079812,197.62391,22974.396853,7.228894,333.769085,422.807282,14.17007,67.570829,4.043643,1
8.246369,207.172168,31080.432076,6.09636,332.766156,369.029213,17.533954,55.030175,4.433257,0
7.067578,194.283437,22404.149228,7.186468,333.358331,428.521861,14.3319,66.754548,4.012371,1
5.860574,240.887144,18321.992318,6.046385,351.049793,491.875418,8.997226,44.61566,4.277241,1
7.108544,195.035372,21641.769602,7.048364,332.086768,427.852703,14.557346,65.081396,4.035243,0
6.272475,190.200713,14642.20554,9.734513,399.052941,448.56826,16.557177,74.435389,4.612536,1
7.080758,196.903275,22406.138411,7.202861,330.680631,424.273875,14.255041,66.573374,3.986081,1
8.058136,191.277932,29298.359492,6.129173,356.645254,278.502633,12.606204,65.511361,3.130609,0
7.028748,196.246062,21381.96554,7.157929,334.818679,424.586045,14.514112,65.82015,3.97458,0
7.104144,198.330277,22115.066809,7.197099,330.227937,422.488198,14.446273,66.238704,4.021161,1
7.072704,194.78884,22222.505274,7.172237,327.058655,426.468252,14.389538,66.413205,4.038425,1
7.121298,196.092783,22627.434724,7.224025,332.402885,426.887388,14.280367,67.511346,3.97854,1
7.185616,194.736158,22354.770907,7.115287,334.877269,421.900451,14.406964,66.613758,3.931419,1
7.115804,198.715918,22453.287706,7.032077,330.466815,427.342699,14.271682,66.637172,3.990217,1
7.019808,196.365305,21977.103586,7.111351,330.020743,419.808687,14.097106,67.29618,4.008098,1
6.877457,136.879214,27433.587294,7.091522,307.397088,342.196347,18.403846,81.193412,3.82765,0
7.089896,196.92367,20615.326551,6.938322,332.668995,425.912652,14.49115,67.182839,3.935341,0
7.072347,197.426602,21694.712277,7.138447,331.528911,431.282106,14.355216,66.495225,3.932108,0
6.994229,194.534348,21351.82162,7.141476,332.773628,436.393746,14.500264,65.602075,3.979589,0
6.989325,194.626842,22342.32977,7.152793,330.890648,427.480341,14.027742,66.21817,3.947626,1
7.009812,193.919303,21055.845533,7.30283,335.137723,425.972608,14.472816,66.250302,4.001219,0
7.146047,196.416803,22118.844134,7.119602,336.199543,427.858422,14.401604,65.856719,3.899066,1
7.000759,196.1326,22690.535715,7.167646,329.598626,423.635704,14.257917,66.549242,4.007567,1
7.030102,199.046668,22170.998695,7.049262,332.768182,433.332715,14.487715,67.300629,3.928847,0
6.98695,196.909594,21598.577018,7.083097,333.89412,424.525525,14.199219,66.020123,4.022102,0
7.073438,196.28481,23295.096607,7.141998,330.005008,426.720878,14.306351,66.121179,3.986388,1
6.862154,193.426487,21187.879689,6.981707,331.54851,429.025116,14.501808,65.557054,3.943071,0
8.736371,194.677687,24283.658791,8.855544,329.004205,333.623794,16.516232,67.250473,3.802116,1
7.079969,196.546873,22930.587605,7.052368,333.981576,432.385141,14.205752,66.545499,4.035838,1
7.005008,196.841725,21723.526705,7.177013,330.366129,425.230176,14.19924,67.468737,4.018373,1
6.435723,214.724669,9363.853988,9.997624,273.463139,508.345207,12.92587,71.42859,4.925339,1
7.108601,197.594399,21772.253947,7.05903,331.617638,421.643595,14.453983,67.228769,3.914666,0
7.077575,192.776669,21621.607015,7.171531,333.376523,423.621695,14.276051,68.332729,3.979938,1
7.09135,198.511249,21854.394362,7.207188,333.919651,424.132412,14.196895,66.214725,3.98428,1
7.087746,195.625923,22760.040683,7.063322,332.423706,427.891964,14.277394,67.183438,3.968885,1
7.049785,194.270327,22467.891683,7.163149,327.742481,426.289628,14.067668,67.115698,4.014528,1
10.191665,211.566904,13630.047308,6.524476,297.049066,468.371387,17.411747,72.720573,3.403423,0
7.071753,195.1792,22595.67416,6.996625,329.823109,423.829146,14.493889,68.114097,3.996298,1
7.078761,197.300863,21554.739317,7.122611,334.416862,425.998255,14.334735,66.597449,3.956674,0
7.11967,197.76973,20963.367762,7.093557,333.589511,429.952127,14.559689,66.32574,3.934167,0
7.168166,194.089096,21677.115099,7.025414,330.255484,427.057066,14.081264,66.22975,3.932202,0
6.913955,197.713676,21924.524921,7.025402,336.931487,427.31027,14.204916,66.18558,3.98354,0
7.122514,199.119761,22040.601398,7.166787,337.064178,433.623739,14.234713,65.460732,3.921448,0
7.118673,196.340543,21590.416432,7.080512,332.02133,428.784972,14.431812,65.277835,3.989315,0
6.320375,165.821545,20481.642071,7.605958,354.289035,422.341048,14.79396,46.043065,2.728617,0
6.946347,191.986967,21561.442746,7.236763,331.700879,432.339968,14.237181,67.43633,3.918516,0
7.11458,195.770106,23452.264847,7.041606,331.622012,424.072921,14.33687,66.352507,3.961163,1
7.229648,198.89333,22523.05574,7.1146,335.249791,434.371137,14.208222,64.846948,4.079243,1
4.851104,146.627237,20227.643783,6.340534,368.941214,346.52031,15.266726,56.989926,3.644107,0
7.274482,195.327024,21916.499031,7.129262,331.887304,428.323063,14.294744,65.219913,4.001243,0
9.961503,276.699765,18743.222494,9.16074,361.221166,457.551559,21.564489,93.740334,5.21559,0
6.511618,181.873422,29136.814624,7.685775,345.751638,475.341351,12.321232,52.437617,4.850434,0
7.022931,196.783128,22029.542177,7.163939,334.139358,423.947519,14.525445,66.650925,4.006303,0
7.12597,199.355343,21889.630376,7.141977,334.753051,427.220614,14.497922,66.795029,3.983872,1
7.190141,194.755406,21995.886031,7.245915,336.119106,429.455917,14.476926,67.519297,3.983028,1
7.315573,198.765724,22104.774611,7.128106,331.640779,425.742034,14.201054,66.191094,4.010446,1
6.630122,192.521703,36269.701317,4.973866,277.499297,320.470853,14.786347,80.980213,3.352765,1
9.161089,119.841905,26618.059637,6.105573,343.289234,379.725182,10.899926,54.580736,4.888061,1
6.979012,195.291399,21687.491431,7.053367,334.401531,432.085709,14.329881,65.812563,3.908065,0
7.002305,196.764803,22155.04626,7.223065,330.225569,426.232561,14.296645,68.36166,3.953792,1
7.199454,192.440869,22686.138505,7.09528,332.763329,421.360977,14.039006,67.350518,3.98073,1
7.180951,194.977771,21598.365901,7.078994,334.698659,428.350421,14.376636,66.07559,3.954703,0
4.296247,278.147524,19672.487213,4.955218,414.636726,330.067379,11.293187,70.66554,4.163329,1
7.136722,197.123031,22409.420381,7.084298,328.37715,425.120944,14.323482,67.12768,3.937811,1
7.094526,195.286021,22663.090892,7.132053,333.098483,419.730834,14.439456,65.895,4.000507,1
6.392928,159.168926,21217.158596,5.298877,317.256788,305.2436,16.865453,62.154379,3.271339,1
7.083953,196.579282,21422.492439,7.181439,336.749866,426.338078,14.132868,66.636468,3.961833,0
7.22142,198.51012,22344.315473,7.181084,328.240122,423.711368,14.372992,68.077418,3.992964,1
6.904615,194.899584,22174.595618,7.018436,332.922389,432.340031,14.46309,65.289063,3.96526,0
7.038771,195.87447,21030.038255,7.008201,336.546175,426.6436,14.479006,67.371627,3.966654,0
7.189105,196.651058,22558.081545,7.190998,331.204259,428.936085,14.279949,67.5688,3.919917,1
7.120942,196.211371,22252.373002,7.221649,335.58233,427.124074,14.438115,66.37863,3.9592,0
7.021961,196.367349,20803.745975,7.084442,331.582451,432.772585,14.500188,66.958846,3.933769,0
7.065008,199.349426,21770.711069,7.168724,335.514932,431.228616,14.202085,64.965502,3.935243,1
7.104722,199.734248,22464.645368,7.116099,325.957482,428.26375,14.404373,67.339087,3.970664,1
7.039605,196.528776,21499.512617,7.079996,333.364434,426.971744,14.493993,65.602831,3.972326,0
8.01578,180.060377,12135.72493,6.259376,310.068681,666.690618,17.660149,66.588849,3.18058,0
6.217273,130.944464,19460.382819,7.092463,300.131272,556.65371,14.083608,57.897075,5.325833,0
8.899588,208.106548,17915.085972,4.793575,334.571785,381.159354,14.39874,48.299497,3.928614,0
7.083605,197.762881,21360.587677,7.14412,334.038736,428.840789,14.271764,66.261946,3.933965,0
7.033617,196.087028,22748.440423,7.333237,334.496988,424.984397,14.631402,65.60784,3.991086,1
6.948548,195.525273,22222.657423,7.095397,330.621854,427.054365,14.125337,65.456954,3.965875,1
7.12406,195.396839,22337.888038,7.15465,332.003159,426.084541,14.329225,65.543366,3.95586,1
7.130381,195.604619,22819.674418,7.303751,328.128726,432.31412,14.214351,65.94624,3.944249,1
7.221243,196.354269,22524.043625,7.316779,331.760179,425.770415,13.975344,67.481325,3.967613,1
7.113634,193.505995,21519.554909,7.181992,328.160931,420.585687,14.135897,66.095381,3.956326,0
6.906561,195.199669,21942.729344,7.061454,330.83898,415.317368,14.366366,66.297832,4.031418,0
7.156853,197.772229,22597.178916,7.171866,334.815247,427.317218,14.31086,65.422493,3.989641,1
6.72983,229.407784,23114.031833,9.733356,321.160463,521.835525,13.140447,68.252067,4.724322,0
7.155362,196.980787,22422.574012,6.987305,334.295206,422.453657,14.287195,66.482264,4.058395,1
6.01454,205.48294,23268.243081,9.035769,283.340368,371.403475,16.863668,73.017793,2.686069,0
7.196282,200.315004,22660.972431,7.080313,332.35866,427.346618,14.210532,66.789454,3.990241,1
7.081343,197.221945,21750.219323,7.180913,333.738574,426.764721,14.510519,66.362176,3.937043,0
7.093297,195.970616,22126.444343,7.121171,331.08594,424.677861,14.06385,66.008305,3.992194,1
7.200228,197.023938,21326.061416,7.12453,331.337896,425.588629,14.092832,66.12172,4.036731,0
7.090282,197.984084,21711.447864,7.010096,334.639698,429.891456,14.316337,66.595227,3.978898,0
7.090932,194.311738,22407.77928,7.138606,332.4786,428.399557,14.318008,67.322511,3.953005,1
7.190834,196.327589,22969.019546,7.215149,335.626524,429.077379,14.275844,68.645165,4.059238,1
7.028261,194.753783,22618.664695,7.11535,339.078356,427.916051,14.653061,66.19608,4.03135,1
7.095054,200.633718,22776.089749,7.102209,328.667249,426.8315,14.453166,66.350789,3.920906,1
6.972063,196.325446,21438.267636,7.132244,335.218859,422.01185,14.356665,65.690003,3.983081,0
7.096364,195.730797,21971.487765,6.994309,333.267376,432.618748,14.504136,66.858051,3.964754,0
7.011102,195.928546,21542.604022,7.035583,332.769286,430.554067,14.153735,66.909648,3.941706,0
7.162856,196.065537,22281.311121,7.176849,333.144435,422.156644,14.243757,66.73203,3.930407,0
7.269505,195.393885,22240.798088,7.260853,334.014796,430.417603,14.053863,66.619481,3.971111,1
7.153401,193.732061,23283.29463,7.268262,333.204509,428.894371,14.071781,67.613726,3.971159,1
7.102805,198.162369,21463.412383,7.168553,335.38505,426.150388,14.344307,65.90241,3.96945,0
7.123169,193.673172,22564.915707,7.112544,329.566728,414.796846,14.244848,66.405303,3.963322,1
7.272307,198.439083,22203.211862,7.180405,336.145142,431.469023,14.467162,65.269411,3.989431,1
7.124313,194.930967,21871.768369,7.081763,334.711203,431.044528,14.491785,66.638439,3.975667,0
7.149922,196.557035,21397.711598,7.133076,334.212365,430.211257,14.243161,66.812556,3.993028,0
7.048836,194.964128,21372.376977,7.134486,331.469769,432.0842,14.343946,66.73733,3.978184,0
7.01976,192.179297,22163.512066,6.944759,333.263938,429.252485,14.105823,67.511971,4.07322,1
7.027914,196.505054,21447.22466,7.142805,333.097467,423.73208,14.216375,67.198322,3.980319,0
7.142922,194.528761,21432.43358,6.996022,333.649691,426.769419,14.409795,67.194965,4.016048,0
9.624727,217.37278,25175.754158,9.883946,329.174454,394.054835,20.277571,85.840258,2.615257,1
7.169604,198.333469,22513.491348,7.179954,330.892362,428.267822,14.36527,66.863158,3.979772,1
7.166466,196.1368,22389.845764,7.277374,331.995606,418.778539,14.173797,65.781142,3.967001,1
7.101295,197.850781,21533.582215,7.0544,335.535896,429.255945,14.784214,65.65159,4.005728,0
7.050788,193.510781,21326.088575,7.064381,331.716827,427.829032,14.417489,66.719535,3.934656,0
6.913624,195.821437,22025.620837,7.080107,331.10092,424.004863,14.214348,66.352478,3.920301,0
11.235426,178.596496,33773.107061,9.063042,327.65096,425.868039,17.986255,58.986652,5.147055,0
4.894278,184.552715,10922.541994,7.461703,352.830222,338.681069,21.624718,91.007934,3.594991,0
7.15014,195.076392,21897.488395,7.18356,331.662673,428.87171,14.298808,66.193402,3.973876,1
6.976567,196.260757,22641.168064,7.075624,335.901494,426.825563,14.578018,67.263609,3.943481,0
7.108724,196.990968,22506.536518,7.060682,329.651562,426.149399,14.245084,66.551616,3.936706,1
7.121962,194.431599,21663.826887,7.114781,332.567872,420.638402,14.322909,65.625703,3.979911,1
7.05737,194.890682,21283.83582,7.181059,331.795053,428.755654,14.056884,67.717325,4.033991,0
7.169366,194.601217,21378.61369,7.111856,334.186761,429.298827,14.158092,66.262656,3.901675,0
6.150034,188.413055,8406.723244,7.744714,358.591738,449.358812,13.220295,52.956632,3.444442,1
6.640863,215.060867,16488.047656,6.642337,304.757434,507.128833,11.979157,18.015272,4.708269,1
7.269652,155.15752,31161.368388,3.181183,244.795198,506.010135,17.385515,73.115053,3.789237,1
7.14842,197.068733,22587.435258,7.302599,331.33976,417.284306,14.410473,65.843565,3.960306,1
7.042629,196.776126,21546.30761,7.150798,332.454688,430.499137,14.251188,66.989268,3.967027,0
6.974404,196.731926,21710.023205,7.148075,333.423312,425.930403,14.381233,66.153015,3.955095,0
8.550428,206.522566,10453.087323,6.482009,326.125482,347.824328,13.997466,42.290535,4.90387,0
6.748812,166.390915,22475.09296,8.895422,317.620346,527.45964,12.81927,55.536263,3.312513,1
4.370477,188.654037,29542.338165,8.117114,301.022182,456.308454,16.346838,46.696941,4.649382,0
7.226127,213.320616,23129.748056,6.193624,304.562776,624.229901,16.982256,73.733593,4.153559,0
7.070879,196.877132,21635.476007,7.071804,331.055471,429.320113,14.229835,66.458301,3.922153,0
7.195835,198.396452,21831.049243,6.988267,334.135602,423.941991,14.65737,66.407345,3.919977,0
7.168049,193.450217,22780.322764,7.071986,335.525463,421.643349,14.09292,66.628804,3.995152,1
7.012308,196.298431,21320.177154,7.199499,333.580964,436.932085,14.785825,64.918153,3.943491,0
7.1066,196.502608,22045.751286,7.021291,333.418468,424.245225,14.310393,64.91593,3.968906,0
6.978733,194.856037,21773.878287,7.04731,334.514797,432.020095,14.239357,67.485693,3.946612,0
7.053392,195.759107,21163.485845,7.138258,333.938483,425.891755,14.37167,65.954425,3.989686,0
7.022952,264.525606,15978.355249,10.956205,262.064551,412.709423,5.315287,76.024491,4.971907,1
7.105041,195.091301,21753.676946,7.140418,333.506485,432.351018,14.206065,67.146326,3.950437,0
7.102631,195.63329,21519.106765,7.174034,331.490435,418.215449,13.898741,67.323642,4.031448,1
7.098068,194.122834,21701.240496,7.075553,334.025052,421.102244,14.516011,66.08494,3.934062,0
7.020384,196.865485,21092.612204,7.088702,333.727582,424.266154,14.363331,67.385444,3.968067,0
7.191124,197.23591,21809.526754,7.286074,332.364542,421.126912,14.465751,65.597234,4.049976,1
7.197,196.340276,21916.496722,7.219158,334.336654,429.561565,14.267383,66.827431,4.014421,1
7.231505,195.704918,22258.01513,7.062145,332.324937,425.334099,14.163453,65.29157,4.019661,1
7.157242,194.334085,21767.39048,7.009828,335.557832,435.094772,14.369447,66.342997,3.910367,0
7.156946,195.378544,21121.797597,7.093008,331.565895,425.188024,14.226573,64.435579,3.858748,0
6.39276,216.675543,19323.67725,5.906405,283.205517,358.174494,14.982646,41.586606,4.421528,0
7.047294,194.971967,21271.386631,7.063369,334.875397,433.431755,14.844386,66.752041,3.927189,0
7.150961,195.658296,21826.477703,7.031204,334.197502,424.205459,14.445055,65.92596,4.002015,0
7.035749,197.036586,21435.362712,7.181661,331.37804,428.197144,14.352861,66.956055,3.906101,0
7.075415,196.847784,22159.734959,7.18942,332.720846,426.645275,14.299806,66.852218,3.957102,1
7.005647,199.296057,22092.841594,7.142837,334.199302,433.792637,14.304072,67.419049,3.944515,0
7.014641,196.52789,21975.731365,7.088188,336.273681,425.245074,14.448534,67.052995,3.971019,1
6.990684,198.496465,21422.351508,7.06531,337.305522,428.406973,14.3755,66.461954,3.93577,0
6.876089,194.537646,22213.305585,7.08801,332.988187,423.416721,14.503524,65.510403,3.978902,0
7.139202,194.858281,22044.057007,7.18815,332.592984,422.804134,14.356543,68.447594,4.01629,1
8.026773,169.333843,19168.526773,8.081496,405.527337,350.57737,15.177534,68.003932,3.735983,0
7.241533,192.645455,21779.090743,7.093215,337.86154,428.225947,14.618882,65.398539,3.912691,0
7.37105,214.49661,25630.320037,4.432669,335.754439,469.914551,12.509164,62.797277,2.560299,0
7.185276,212.483172,25645.067233,8.142513,352.869165,435.282981,8.930242,75.60098,2.959154,1
7.284708,191.932098,22541.959923,7.094387,331.391224,424.468895,14.370332,68.060399,3.988871,1
7.08525,197.223166,21738.688775,7.064659,333.102945,427.356606,14.49173,65.280488,3.954565,0
6.683368,272.111698,18989.316768,5.336202,336.5551,307.725009,20.178716,75.40226,5.208061,1
7.000126,195.870894,21935.294922,7.032618,330.64118,424.739093,14.471655,66.630038,3.936886,0
7.144074,192.923701,22041.917932,7.108606,330.129262,425.985601,14.13193,66.686555,3.947216,1
6.950524,194.715134,21605.456685,7.157867,333.366001,427.072949,14.531429,65.721759,3.912692,0
10.81129,209.10305,11848.22827,10.14106,349.923229,393.186446,15.474876,66.030317,4.416184,0
7.046705,194.334907,21055.487897,7.11463,330.160739,423.622636,14.531484,66.02367,3.930413,0
6.968896,194.704759,22175.612028,7.222566,333.731832,430.643478,14.453253,66.135389,4.022684,1
7.042047,198.151846,23133.012604,7.174483,332.105268,421.715226,14.217902,66.31482,4.005246,1
6.931179,195.769783,21550.604221,7.15362,334.377718,424.634454,14.100655,66.602062,4.017015,0
7.420641,212.735585,18463.722127,6.727919,355.971495,523.602714,12.086675,44.980102,5.423767,1
7.18895,196.347067,23097.17446,7.123334,332.832772,423.094009,14.316896,66.676933,3.925708,1
6.983036,194.444391,21704.264461,7.214561,334.148328,426.431445,14.331068,66.167129,4.017951,0
6.929482,195.008955,21221.91975,7.040017,333.686855,425.365926,14.360559,65.949294,3.951526,0
7.156941,195.545211,22259.223266,7.130082,330.357695,427.711015,14.429066,66.525424,3.976886,1
7.303052,196.952875,22053.010262,5.392693,305.221564,451.605924,14.665561,71.710779,4.14487,0
7.148921,195.572795,22473.122695,7.229889,329.652275,423.073381,14.176125,66.469785,3.942677,1
7.187766,184.156604,31125.740434,6.37779,352.916016,472.274122,14.807893,61.963888,3.784121,0
7.607224,160.565253,39184.84672,7.826411,312.056066,503.158079,13.366994,62.022308,3.525027,1
7.147993,196.743234,22563.631381,7.275079,334.625947,428.302655,14.400284,66.691535,4.033896,1
7.030426,198.976285,21733.711622,7.083744,335.343454,429.079822,14.52848,65.34872,3.922684,0
7.052831,198.258089,22153.271753,7.079761,334.548124,429.442029,14.545752,64.641886,3.9102,0
7.273903,192.961905,22742.619026,7.168892,334.535231,432.690761,14.056962,66.305197,4.014631,1
7.173001,196.555905,22076.969233,7.186815,333.019597,427.236644,14.565129,66.842469,3.965332,1
6.758852,218.153477,22540.775167,7.196435,304.680599,382.5027,18.838735,53.815435,3.639972,1
7.152412,194.397644,21561.723854,7.104301,333.029922,431.824658,14.323874,65.911548,3.947169,0
10.033933,213.647419,25433.232095,5.202938,319.010074,362.262157,13.994461,68.02077,2.901535,0
14,235.677458,24008.99204,5.635029,381.097711,460.745267,13.452538,72.859468,3.170994,0
7.13794,197.557717,21148.359275,7.10625,330.38717,425.026487,14.495344,66.824773,3.986521,0
7.052526,195.415791,21927.90957,7.104891,331.368893,425.61837,14.317601,67.174217,3.942551,0
7.096915,196.185594,22473.970906,7.27741,334.982325,424.156071,14.517646,67.331578,3.947579,1
7.468617,240.345305,36701.974347,4.536413,339.221351,453.211366,16.106515,67.952496,3.384179,0
7.118375,196.868482,21995.845222,7.157424,330.843022,430.004453,14.225373,66.163092,3.943344,0
7.292142,174.480427,33991.651567,9.511792,259.164965,435.108017,16.293614,81.690104,4.466913,1
7.139575,197.356914,20915.423347,7.105591,333.246328,424.058641,14.329643,66.497563,4.0039,0
7.104541,196.20281,21780.993054,7.148554,329.721433,418.49851,14.487396,66.570468,4.071082,1
7.196577,195.952021,22028.366912,7.060163,336.534238,435.362607,14.322263,66.423615,3.94061,0
7.124543,196.255836,22267.335989,7.15701,332.602162,422.702578,14.296429,66.246704,3.973152,1
6.973929,193.828338,21365.295353,7.112301,334.970898,425.747393,14.56065,65.554128,3.916545,0
7.043726,195.882565,21766.536967,7.100869,335.369023,430.962106,14.310053,67.622432,3.985544,0
6.935237,195.041434,22428.60552,7.102713,334.76152,427.878216,14.503222,66.147793,3.958993,0
6.316471,187.030116,32651.802764,8.149178,314.208346,463.341217,14.243421,60.26918,4.902735,0
7.134121,194.800485,21769.713956,7.107745,332.782289,432.295769,14.41426,65.689022,3.929006,0
7.079741,196.105779,22398.680394,7.085419,331.592521,427.041408,14.41286,66.682233,4.002355,1
7.181649,194.602765,21800.21945,7.101262,333.74532,425.379076,14.491814,67.215414,3.931274,0
7.126414,194.52644,23460.429423,7.073035,332.111415,426.423706,14.325491,67.101681,3.914637,1
8.373171,179.521406,22022.626217,5.215042,339.492222,396.696697,13.697087,110.43108,2.78633,0
7.112809,196.75557,22170.469515,7.1194,330.922141,422.26912,14.54527,67.709382,4.009433,1
7.11341,193.720795,22469.165663,7.281771,332.832603,426.915623,14.420199,67.165073,4.020534,1
7.214316,197.914213,22664.899995,7.06684,333.372119,422.696552,14.294143,68.199306,4.034553,1
7.00067,196.862013,21159.998142,7.118548,335.511065,423.653797,14.788963,65.67321,3.937919,0
7.066503,194.807836,22005.498311,7.166458,335.353224,423.360583,14.406184,65.998513,3.9994,1
5.736676,180.290908,12683.483292,7.907877,423.876297,415.006576,12.392869,83.707045,2.741791,1
6.953418,194.23968,21815.28186,7.122276,334.108034,428.632489,14.488339,67.087338,3.909547,0
6.983624,196.861879,22794.967402,7.15847,337.874388,419.432741,14.330485,67.663429,4.113166,1
7.031247,197.121703,21193.629764,7.123188,328.796548,423.522982,14.081079,67.138857,4.011429,1
7.052316,197.286766,21682.208221,7.125441,332.520748,431.833675,14.450572,65.001981,3.97281,0
7.075273,194.311965,21799.823001,6.983771,335.102157,426.492277,14.124237,64.399167,3.943753,0
6.929171,195.786294,21688.622983,7.119121,336.384108,427.230517,14.48808,66.225611,3.988977,0
7.142845,196.738356,22631.222862,7.16715,330.471774,423.52025,14.273479,66.26157,3.987372,1
6.972045,193.495295,22020.436855,6.97609,330.61336,432.539292,14.029981,65.301575,3.913147,0
7.032413,196.1162,21622.311273,7.149701,333.774225,428.384076,14.319248,65.919414,3.926575,0
7.160948,194.583083,21321.216115,7.213926,333.843885,423.51878,14.157402,66.136315,3.932686,0
7.08458,193.767,22532.48316,7.078825,331.45706,421.984662,14.362246,67.484905,3.995086,1
10.628821,193.433163,14054.125487,10.328489,327.064185,479.402509,14.075787,66.367503,5.140449,0
7.181071,191.680847,21977.675787,7.093254,333.49323,431.444752,14.035784,66.585108,3.942087,0
7.067394,198.02752,21783.311897,7.138943,335.950443,424.348658,14.490506,66.891701,4.035874,0
7.112731,195.576854,22221.675724,7.231536,338.41937,414.952863,14.308048,66.50714,4.006589,1
7.095458,195.203831,22933.8867,7.148772,333.204646,422.057678,14.426054,67.321035,3.982832,1
7.056206,198.117117,21167.214698,7.136841,334.287749,429.213131,14.22257,66.634734,3.988841,0
7.11139,194.034255,22923.223269,7.277754,334.02675,425.083732,14.473761,67.530001,3.921095,1
10.581386,213.776439,11298.450091,7.668897,300.184622,497.169128,17.971295,83.345304,2.966946,0
7.234426,193.840472,21995.592421,7.060443,333.602437,425.977601,14.169514,66.808771,3.954725,1
7.108968,196.46947,22535.160341,7.070043,330.59636,426.009251,14.214084,66.543762,4.002689,1
7.007975,248.904712,26136.313571,7.773736,335.054244,403.754256,10.905476,75.333025,4.628975,1
7.034589,195.965904,22411.841728,7.058417,333.456706,424.078366,14.368638,66.310323,3.939824,0
7.340171,210.118813,12810.42316,8.867294,309.661578,412.706558,12.389229,73.513321,3.91914,1
7.266201,196.839107,22071.082486,7.035828,332.63856,417.661984,13.914723,66.302336,4.048683,1
7.003517,195.67388,21482.955802,7.130154,333.173535,423.547093,14.208005,64.846115,3.90479,0
7.071945,196.23352,22275.014336,7.05506,328.544232,426.561308,14.549236,65.372128,3.974455,1
7.333003,189.447965,32358.538595,6.346378,341.346443,490.625291,12.537466,61.581378,2.642004,0
7.174554,198.542423,23648.910135,7.226909,332.529285,425.242327,14.170368,67.644524,3.969533,1
7.111669,195.585546,22459.840566,6.963188,331.992768,424.42818,14.302953,66.134215,3.969882,1
5.742533,182.941032,21293.889754,6.826413,306.543072,435.234727,11.144072,68.612391,4.272203,0
7.075836,198.756237,22104.541901,7.1343,335.123355,422.280393,14.226641,66.355143,3.999155,0
7.108616,197.034517,22708.189214,7.276983,331.980514,429.372307,14.401085,67.712258,3.991899,1
7.105455,196.48018,21373.853228,7.047346,333.731606,429.949119,14.481185,66.673236,3.954873,0
7.213071,198.979257,22602.033454,7.164758,335.504687,427.392574,14.288,67.53101,3.999962,1
7.096207,194.778872,21508.876864,7.041151,332.247734,425.282601,14.365123,66.543175,3.935889,0
7.146848,196.181215,21747.265937,7.205612,331.269238,426.063755,14.131837,66.768858,3.995281,1
9.808258,220.049574,34132.067979,9.752751,233.870327,367.044379,13.498665,62.95426,4.481261,1
7.047089,197.096759,21689.372917,7.094461,333.318231,425.629299,14.475428,67.142473,3.978691,0
7.15991,197.884281,21421.356516,7.112526,332.772921,427.509723,14.295297,67.575876,3.916259,0
7.114246,194.44871,21263.131011,6.939308,331.690984,432.323457,14.737505,68.070979,3.977123,0
8.051022,171.751754,28338.66404,6.392121,319.005071,496.906266,16.19287,91.123219,3.767443,1
7.056993,195.566582,20742.390877,7.131757,334.315678,420.949868,14.371718,65.250614,3.914088,0
7.061234,195.68635,21529.812517,7.150574,332.55443,421.59381,14.263641,65.70738,4.002976,1
6.954341,196.027085,20894.668409,7.125865,332.315285,429.171748,14.565082,64.757286,3.95424,0
7.167211,195.630542,22181.97948,6.970917,334.1386,430.432488,14.572811,65.709062,3.94572,0
6.955987,195.159682,21276.925102,7.000102,335.96034,426.405361,14.477723,67.01429,3.951648,0
6.890871,194.184076,22155.025356,7.051748,335.005811,426.511823,14.656797,66.393127,3.991118,0
8.378108,198.511213,28474.20258,6.477057,319.477187,499.866994,15.389083,35.2212,4.524693,1
5.433466,177.828302,31421.731633,4.584134,347.097354,490.284674,16.066439,58.416699,2.871196,1
7.202232,194.235277,21963.761986,7.109317,333.632276,428.995254,14.354571,66.893664,3.924668,0
7.164065,198.420089,21612.549649,7.044105,330.998923,422.150166,14.598243,64.769277,4.019826,1
6.60254,174.632977,21607.483238,6.581327,308.931421,657.570422,9.064445,68.827047,3.592496,1
6.953124,196.335579,22078.387351,7.234267,336.285854,426.589556,14.351594,67.059772,4.004753,1
6.628256,198.865743,15911.357509,7.517906,342.015924,437.918625,15.005742,38.845958,4.464457,0
7.008165,196.393184,21583.754949,7.061446,332.598143,424.806205,14.539314,67.022207,3.936713,0
6.799713,196.240583,21574.973651,7.07627,333.841028,427.677921,14.310104,66.78784,3.938451,0
7.153108,193.092316,22093.302367,7.177922,336.534555,431.285755,14.11689,66.630015,4.00631,1
7.153275,197.366105,21974.628709,7.100388,336.403907,422.283663,14.432951,67.29773,3.948125,1
7.104478,194.542824,22359.420942,7.204993,335.279661,426.489252,14.366749,68.144288,3.938949,1
7.048429,197.081169,22511.938718,7.084161,333.405817,427.150966,14.379643,66.816031,4.020887,1
7.203787,198.62348,21809.887394,7.078799,334.29939,418.713501,14.451507,67.777051,3.875717,1
6.965448,199.415676,22186.130517,7.061314,333.012284,422.568022,14.183313,65.909009,3.962438,1
7.002502,195.044571,21455.932588,7.172958,334.83321,425.580941,14.371792,67.410796,3.952521,0
6.268403,154.681902,23050.331257,6.832938,290.703236,421.220228,13.881357,65.891392,3.389705,0
7.740384,179.302381,12477.771818,9.989628,421.39399,471.783153,8.412402,66.163439,3.013361,1
7.034759,196.983889,22484.382641,7.234463,328.808516,424.116912,14.432432,65.422088,3.963961,1
7.067276,195.792804,21800.38345,7.109348,333.248456,431.045547,14.372898,66.357912,3.943616,0
7.206133,196.851264,23107.308245,7.186519,334.426037,420.652376,14.564774,66.247781,3.964126,1
7.083733,198.838517,22617.778313,7.205641,334.885644,420.885425,14.135091,68.439491,3.981596,1
6.396341,126.490745,20115.733588,7.763739,427.377802,435.278434,11.881668,53.659152,4.445907,0
7.244517,198.295096,21061.834993,6.979754,334.419861,433.743068,14.489076,65.515992,3.899666,0
7.012686,196.747902,23376.754189,7.214279,330.084706,422.700599,14.465345,68.015184,4.017258,1
6.943604,194.7601,21349.361617,7.115434,335.85158,426.248115,14.477235,66.152103,3.918629,0
7.067084,195.594751,21957.083197,7.059139,335.22169,424.67789,14.026233,66.363242,3.99567,0
7.101256,195.867141,22035.182544,7.061706,333.378388,426.228713,14.100252,64.891569,4.007081,1
7.127428,196.858362,22014.963518,7.143728,335.123976,429.496592,14.381633,65.802797,3.919878,0
6.954907,159.766399,21895.285701,4.4939,337.267177,482.59827,10.663492,78.763592,3.169715,0
7.170092,192.484286,22767.848925,7.244591,330.152983,425.212382,14.330751,67.835822,4.01667,1
7.102941,195.279761,22535.706464,7.338152,326.813072,437.791126,14.255119,66.199365,4.000158,1
7.079022,194.310533,21538.270069,7.046602,332.534629,424.842975,14.197228,66.300247,3.99812,0
7.459145,217.70013,19436.503542,4.639116,352.424439,494.094339,14.460295,57.196188,3.841052,0
7.109593,194.370816,22202.377829,7.02224,333.750784,429.585074,14.352245,67.003781,3.91295,0
7.03797,195.69301,20909.413397,7.047676,333.665892,424.611099,14.046903,65.992746,3.959514,0
6.965652,194.166177,22113.863119,7.16192,337.850537,426.112348,14.343558,66.106575,4.001307,0
7.069368,194.443764,22917.957697,7.178412,333.421365,424.366092,14.524899,67.197606,3.938013,1
6.863136,194.586659,23610.517563,8.193416,346.768052,439.229616,14.659741,89.027196,4.319777,0
7.089735,195.58337,22011.462702,7.032071,331.872294,422.495572,14.240979,66.872508,3.950785,0
7.117779,197.422786,21874.572695,7.080499,330.892075,424.671792,13.826711,66.431724,3.923988,0
11.02788,228.322798,13124.105636,7.516643,319.354039,376.231918,8.033859,48.529038,4.178898,0
7.191901,198.74376,22276.821652,7.224139,338.830822,425.931458,14.319106,66.678522,3.918694,1
7.083566,196.015648,20801.34212,7.084486,334.103392,430.250915,14.178315,67.159282,3.91727,0
7.177015,195.401563,22458.830255,7.182696,333.328253,428.209617,14.233607,67.016017,4.007004,1
7.191138,198.965105,21734.595304,7.10948,329.41118,423.795925,14.522386,66.555992,4.047356,1
7.134985,196.712303,21887.428935,7.071052,331.910273,426.591693,14.293775,65.943957,3.991903,0
7.065474,197.679338,22628.496135,7.154902,334.14958,430.730005,14.452436,66.505667,3.969949,1
7.09824,191.33573,21781.24497,7.254271,333.816902,425.510017,14.464121,65.228868,4.001474,1
7.301464,205.72188,23778.758719,8.179967,333.339282,529.624618,12.352311,41.032062,3.942709,0
7.119839,196.864399,22072.435866,7.168713,332.114807,420.10321,14.239257,67.043829,3.956465,1
6.448931,240.244771,13979.165723,9.077985,314.590477,473.751302,17.416903,84.024786,3.622196,1
6.98271,195.990642,20758.85048,7.055704,332.664393,421.686888,14.61189,66.069051,3.857867,0
7.050685,197.896349,23683.444308,7.215058,332.536579,431.100627,14.334863,66.636782,3.975476,1
7.026147,194.999579,21314.942536,7.110935,335.480013,430.467951,14.622418,67.144827,3.866163,0
7.239503,195.101828,21739.198669,7.300306,329.905872,425.763259,14.340836,65.811822,3.973276,1
7.110002,194.491314,22293.046626,7.288905,333.632259,428.961237,14.53596,67.910434,3.994996,1
7.117035,197.437391,22015.92858,7.005577,336.802781,426.686404,14.429863,64.828285,3.97125,0
7.11502,195.356045,22038.627824,7.059435,334.218186,415.532352,14.489737,67.427478,3.937943,0
7.152318,197.678277,22482.218039,7.071282,335.798618,419.746114,14.356205,66.079122,3.995127,1
7.050218,194.674375,22241.847533,7.11629,333.761414,422.190972,14.30288,66.510494,4.005538,1
6.989662,195.355598,21844.740024,7.137231,336.452366,435.882792,14.192291,65.791183,3.963447,0
7.14995,199.682571,22504.263626,7.198428,332.176493,425.766821,14.06782,65.814454,3.991047,1
7.186355,196.011724,22237.26318,7.191249,333.858634,430.517195,14.187933,66.149089,3.998928,1
7.179249,194.218255,22592.333126,7.16664,333.564348,421.770388,14.207751,66.369806,3.996519,1
6.944723,200.6066,21483.505859,7.055471,335.772484,426.096038,14.527233,65.918339,3.955002,0
8.15321,127.144892,10280.929497,5.828358,267.636886,487.908327,11.943477,90.619354,2.905788,0
7.148175,196.805909,21936.158269,7.228574,330.031085,425.025979,14.228833,65.696881,4.004432,1
6.918204,197.259894,21208.728162,7.106997,335.315436,426.62227,14.279366,66.778777,4.000741,0
7.010704,198.039363,21092.861,7.072082,333.420672,425.901801,14.196034,65.408103,3.896445,0
7.029129,194.850022,22292.290777,7.171979,333.876078,423.849581,14.412312,67.005379,3.921612,0
2.376768,129.863973,11684.111637,9.974808,301.429747,503.91039,8.741258,76.310695,3.629218,0
7.008954,197.369136,22793.197828,7.144395,330.149489,422.831059,14.242113,66.899393,4.064831,1
7.023342,195.472091,23136.728695,7.073782,331.600817,425.586213,14.155021,65.953617,4.034881,1
7.159792,196.300394,21620.148685,7.155777,335.47305,432.60152,14.202271,66.896429,4.014584,0
6.992192,194.696812,22472.802372,7.158656,337.051969,434.301662,14.01276,64.876632,3.874001,0
6.962047,194.621638,21783.95021,7.127396,332.031619,427.44592,14.36312,67.019071,3.990316,0
7.041568,197.005255,21150.186122,7.121515,334.432565,427.95635,14.383047,66.427991,3.898755,0
7.117142,196.280911,22142.098772,7.412275,336.211949,422.566057,14.172354,66.82219,3.928537,1
7.943882,211.816551,32071.179369,7.769215,290.337398,353.336484,17.87195,78.492783,4.111691,0
7.133253,198.062082,22806.198209,7.031751,331.665088,430.301147,14.353644,67.195514,3.961495,1
6.956771,194.437911,22073.262945,7.183325,334.971421,427.363608,13.937679,66.354737,4.042398,1
7.115485,199.331787,21128.381934,7.105626,333.160806,428.926419,14.015422,65.667845,3.93849,0
7.048308,198.075754,22038.730075,7.121604,333.716145,426.429981,14.20396,65.111934,3.948882,1
7.21489,195.225093,22128.347775,7.128288,332.424999,428.71399,14.025985,67.585131,4.012517,1
8.515977,212.304629,28553.559458,7.225366,342.604083,341.740345,9.003647,60.725201,2.165682,0
7.073431,197.303304,21289.11567,7.074482,334.63353,430.713373,14.330492,66.877652,3.981282,0
7.101439,196.846708,21023.594711,7.121368,333.253727,432.084189,14.564429,65.99238,3.863514,0
7.12004,194.219396,23111.655175,7.262064,330.921079,421.636411,14.193586,66.695466,3.949911,1
6.984752,194.643792,21013.062441,7.240528,335.743584,428.158012,14.392078,66.1177,3.918536,0
5.158723,119.09384,33892.245951,7.572175,407.476849,325.20257,16.963982,73.224833,4.094605,0
7.141671,196.325504,21805.78716,7.02926,333.79508,423.317615,14.259052,66.832744,4.006337,0
7.102851,196.072521,21784.721717,7.038713,335.901976,427.346071,14.658096,66.34703,3.955948,0
6.942588,196.16696,21734.396423,7.17518,334.918384,417.219666,14.090082,67.068063,3.968107,0
7.003577,195.789366,21496.367353,7.124369,332.846438,423.214111,14.658538,65.718823,3.937423,0
7.13826,197.616564,21554.113731,7.298193,333.355714,426.718323,14.524964,66.523514,4.084606,1
7.181449,209.625601,15196.229987,5.994679,338.336431,342.111286,7.922598,71.537953,5.08886,0
7.592672,177.080839,14912.225506,6.041144,349.240614,355.284442,17.161966,42.115257,3.341427,0
7.147262,199.497806,21735.654284,7.170702,335.67252,421.701822,13.990755,66.654037,3.947072,1
7.14629,199.09555,23086.860155,7.251312,333.528883,423.940124,14.289698,66.418262,4.019974,1
7.106332,198.322595,22111.514849,7.092924,331.911873,422.428144,14.174003,67.847282,3.960555,1
7.075184,197.648912,22617.308182,7.205145,331.779241,426.793293,14.160821,66.90402,3.919335,1
6.997593,194.879041,22392.359385,7.024111,331.606058,434.118406,14.356662,66.11919,3.934259,0
7.422225,203.323308,40148.123721,5.602314,256.590451,401.775457,9.025661,53.019585,4.486513,1
7.082466,197.267439,22790.616451,7.342407,325.771234,430.28427,14.052318,66.69046,3.948152,1
8.32635,213.874858,35477.766643,8.364131,346.787003,569.103294,17.466467,62.792905,4.395285,0
7.206274,195.47005,21894.488541,7.07207,331.514655,423.810491,14.497848,65.682674,3.958771,1
7.180586,195.536594,21884.826222,6.978874,328.01592,421.367908,14.348635,65.963405,4.045674,1
7.160321,195.502005,22565.57434,7.139472,333.46238,422.252056,14.384964,66.470519,4.000994,1
6.964198,193.75328,27408.499332,10.184605,307.694522,302.940433,15.88965,78.076738,2.395683,0
7.187888,197.305158,22524.73304,7.139044,332.523065,429.37964,13.932555,68.136352,4.046955,1
7.03977,195.64639,21553.95542,7.088206,334.552871,432.663188,14.260742,67.539102,3.930862,0
7.008266,196.653395,21674.969876,7.142595,330.201767,425.068887,14.538624,66.060816,3.959552,0
7.090026,199.465241,22209.670201,7.214465,334.136132,419.190718,14.486602,66.75432,3.987173,1
7.047257,196.067822,22374.293136,7.237498,331.17185,421.156917,14.291897,68.34954,3.947864,1
7.109615,197.374494,22619.629732,7.263396,330.483273,421.484956,14.040026,68.465772,3.991122,1
7.139396,193.640361,21530.784906,7.002492,338.127484,430.921632,14.654747,67.154145,3.913014,0
7.204391,198.223894,22710.765657,7.250715,334.727893,425.320278,14.266757,66.624805,4.007854,1
7.084132,197.151449,21463.758153,7.063881,333.306604,428.142311,14.664368,65.681449,3.903376,0
7.055588,195.57629,21829.242258,7.112284,333.289012,425.620763,14.163788,66.126536,4.000624,1
7.182049,194.546672,21505.840103,7.071295,335.337877,420.91642,14.496175,66.856944,3.91496,0
7.027199,197.945121,21306.068641,7.018538,335.243396,430.18152,14.407745,66.037315,3.898829,0
6.25281,187.569479,27690.474784,6.489931,330.94921,303.496373,14.261369,57.952826,2.921797,1
7.023764,194.972179,21403.563668,7.050504,333.457668,426.823873,14.610275,66.938765,3.957913,0
7.112929,198.719983,21656.117241,7.160055,333.097821,426.27772,14.234163,66.075084,3.927434,0
7.174072,193.210095,21946.702365,7.16597,330.62572,424.862978,14.498693,66.786053,4.084158,1
7.154047,195.547742,21884.138014,7.046836,333.156893,427.7287,14.513023,67.535298,3.988361,1
7.132906,196.215736,21575.35309,7.143217,332.90899,421.115337,14.397774,66.119927,3.950292,0
7.140126,200.070795,21734.81303,6.957773,332.639684,419.344901,14.515014,66.723693,3.962791,1
7.048621,195.848939,22459.413545,7.311318,331.022539,419.902359,14.112478,66.648239,4.042232,1
7.109474,196.802004,22819.675952,7.142839,333.211461,426.203919,14.434349,65.616638,3.941937,1
7.02003,194.865776,21479.802568,6.979386,333.610117,424.604788,14.324083,65.877011,3.957246,0
7.169191,196.26728,22704.713259,7.252678,327.009658,429.015624,14.41679,67.343378,3.977589,1
7.146999,196.232763,22734.338728,7.062722,333.0568,430.276557,14.57374,67.00479,4.00554,1
7.0635,194.031514,20804.169333,7.102824,335.316146,427.412936,14.290662,65.633394,3.983515,0
7.793039,257.657739,17398.385843,8.271246,251.383944,439.7016,9.557031,54.235433,3.38927,0
6.393231,185.836158,17258.114035,7.329999,330.132139,326.427055,11.650393,47.640014,3.644388,1
7.192728,196.184396,21682.790375,7.041361,331.607029,430.316998,14.472764,65.980739,3.894218,0
8.170588,208.279181,12806.832327,5.489259,322.923998,472.028286,13.389549,28.566364,3.995857,0
5.76735,272.472178,15417.932834,7.72886,315.404917,424.461152,15.284268,60.822135,3.89609,1
6.941468,198.222413,21855.964207,7.28666,330.687859,421.724946,14.376555,67.140886,4.018549,1
7.015672,195.777978,22307.687208,7.214986,333.091127,419.72,13.933582,66.221757,4.015478,1
7.072695,196.608434,22742.760061,7.127145,332.706238,421.391665,14.296941,67.316628,3.973108,1
6.867681,198.40775,21819.935294,7.092874,333.353444,432.524449,14.561064,66.515184,3.900792,0
6.805157,194.798636,22091.933545,7.126793,335.465123,422.966609,14.330705,66.945471,3.952886,0
7.062318,194.525329,21016.174141,7.161325,334.385482,420.457145,14.303445,65.317394,4.00472,1
7.104568,193.945751,22618.403475,7.20672,333.643073,427.934758,14.248981,66.251954,3.998951,1
6.17981,248.833263,15391.559151,8.014257,273.08689,487.625733,9.696478,69.697025,3.704324,0
7.199328,197.588452,22120.653844,7.176598,335.67121,427.506962,13.957568,65.213928,3.995763,1
6.158424,176.03145,26369.02657,9.771212,347.893738,453.705993,13.254689,61.057778,5.080498,0
7.197231,195.923277,22553.187656,7.163628,331.132307,428.496495,14.278577,67.359752,4.019223,1
7.142435,194.209452,21967.518738,7.175322,333.103728,423.387354,14.748144,66.443454,3.955259,1
7.193936,195.9409,20972.736049,7.144923,331.24284,422.529086,14.336261,65.937676,3.974839,0
7.20671,197.274994,21732.119129,7.227022,338.36503,424.747548,14.297094,65.826277,3.930282,0
7.073449,194.726749,21652.177864,7.13351,333.334262,427.986834,14.344861,67.765402,4.01992,0
7.105407,197.057144,22061.267748,7.06861,334.796499,423.229727,14.554157,65.843174,3.971242,0
7.100512,195.526222,22437.067527,6.964102,330.670675,425.599586,14.193241,67.02581,3.899696,0
7.128743,196.827624,21450.512788,7.301354,334.538561,424.878099,14.220281,66.255791,3.91015,0
8.859696,194.556482,20231.517645,6.519659,332.349949,476.23171,17.889569,52.909071,4.575331,0
7.169505,193.43677,21406.983286,6.978111,334.617189,421.699124,14.376389,67.517999,3.969321,0
7.085944,193.442133,22246.934378,7.186302,330.993425,425.873101,14.290927,65.618542,3.993868,1
7.039681,193.982275,21321.524378,7.2285,334.504007,424.365796,14.056226,66.343489,3.941987,0
6.425874,188.980282,11965.396508,7.571123,365.453655,502.991088,13.866487,96.818113,3.731937,1
7.229226,197.263188,22314.690864,7.164422,331.941725,430.114723,14.721596,66.705711,4.032644,1
7.181243,195.332549,22765.750113,7.272103,338.724562,417.542912,14.336647,66.651979,4.01211,1
7.173407,194.964139,22325.366164,7.175475,332.678365,425.230257,14.529719,67.148896,4.037209,1
7.038714,198.012502,22020.132665,7.212975,330.476082,426.258333,14.460747,66.677777,3.991216,1
7.190378,196.82697,21443.897384,7.279202,330.96158,425.312947,14.149101,67.122283,3.980186,1
6.841221,166.67695,28263.80372,7.115715,318.790202,532.184741,21.469491,78.227748,5.092365,0
7.139789,195.523907,21052.600659,7.111344,334.28316,421.894394,14.200191,66.054274,4.007074,0
7.093681,194.854378,22205.412752,7.156061,334.938791,425.948327,14.519948,66.390349,4.014868,1
7.161069,195.409744,21715.957594,7.150775,335.817289,425.480587,14.30545,66.987746,3.871606,0
7.123004,193.230952,22507.448492,7.157614,333.328162,424.180143,14.156823,65.92806,3.969838,1
7.004726,196.455001,22416.507852,7.000892,335.772843,432.618646,14.424088,68.305799,3.940885,0
7.143558,194.554351,22367.067622,7.177833,334.996679,424.964361,14.639697,65.967735,4.007004,1
7.12612,193.542489,23057.290551,7.119782,328.26951,426.029139,14.535781,68.105358,3.977717,1
7.198141,196.866079,22732.39791,7.22971,326.744753,425.80343,14.152118,65.169605,3.936058,1
7.118258,197.2348,22370.393128,7.214059,328.870624,426.974564,14.155962,66.390024,3.998507,1
7.000454,197.125806,21899.834808,6.941072,334.983989,426.343351,14.210587,66.276288,3.984959,0
7.152566,199.264143,22427.413822,7.104831,328.333067,426.138433,14.274093,67.114567,4.009891,1
8.727779,202.419505,25521.889224,3.830238,326.907924,461.958812,16.611458,104.37325,3.83154,0
7.020718,198.489724,21327.124365,7.128993,336.152039,431.124097,14.273739,66.76813,3.900226,0
7.112527,197.815906,22149.089978,7.153057,332.870085,431.87417,14.268398,66.997291,4.000807,1
6.978407,196.934123,22398.002626,7.1765,329.473848,427.358001,14.398496,68.021896,3.972651,1
6.488193,225.481909,34864.427893,8.951692,385.505635,324.509841,12.696545,97.11286,4.592074,0
7.078151,195.382241,22226.129702,7.139847,333.498712,432.080309,14.241369,68.49403,4.016517,1
7.82874,176.727511,33337.109649,5.438776,286.992631,290.118613,5.871941,75.714425,5.199447,1
6.925257,193.633397,21795.679171,7.13985,333.048228,419.289076,14.176434,66.35423,3.974136,1
7.096837,196.059656,22186.215894,7.126687,329.13426,419.383424,14.349215,66.937741,3.958038,1
7.083067,195.073662,21593.407674,7.07935,333.112977,429.710674,14.466794,66.618983,3.937801,0
9.888941,220.638823,19892.388914,7.986456,326.07656,460.812425,14.929172,59.602808,3.750164,1
7.016502,192.888171,22168.676172,7.078301,332.512319,425.264261,14.215243,66.81953,3.962799,1
7.051206,198.292736,21589.150973,7.195014,332.610296,424.462057,13.811863,67.270853,3.964141,1
7.060485,197.553772,22815.498205,7.18337,329.938953,427.663746,14.4628,67.62575,3.947996,1
6.988815,195.722401,21163.582888,7.15281,334.610499,422.116753,14.283729,67.331978,4.010597,0
6.959949,197.592734,21166.910563,7.066416,335.014149,434.12278,14.642089,66.341184,3.936969,0
7.06973,197.06938,22591.821589,7.188684,335.458313,422.277412,14.069381,65.934858,4.025211,1
7.120672,196.774616,22303.369306,7.17565,334.172525,426.138934,14.352391,67.521896,4.014513,1
7.705711,178.922858,18476.619166,8.226228,334.889911,518.043369,10.638798,63.157489,3.861956,0
6.963755,198.597523,21149.837302,7.265937,330.563272,429.721737,14.353679,66.482751,3.975078,0
7.159245,195.977736,22705.414216,7.143748,333.482886,428.260502,14.411929,65.966214,4.007644,1
7.100566,196.649666,22344.517154,7.172197,333.086903,425.281866,14.247844,65.992007,3.98583,1
7.165527,195.050448,22668.740519,7.066648,333.241251,419.363405,14.346202,65.658117,4.045753,1
4.999414,190.28705,24323.865903,7.230164,324.893038,405.330482,8.236558,99.427385,4.460684,0
6.989996,195.815357,21708.710953,7.047956,333.948397,432.928591,14.615308,65.94573,3.912729,0
6.341751,139.959471,18058.320292,8.361337,417.602446,347.464419,13.314422,58.220982,4.019011,1
7.100099,193.611054,22058.309803,7.052932,336.188624,426.697364,14.636691,65.741045,3.957103,0
7.402653,182.999381,19259.193937,7.63237,295.931373,339.737304,10.494609,83.118742,6.22658,1
7.09878,196.622925,22484.311548,7.101557,333.146586,417.051023,14.38047,68.326004,3.954338,1
7.156682,195.593848,21128.243449,7.112074,332.592544,426.005919,14.367842,66.469241,3.978963,0
7.065483,196.3367,21989.935554,7.098296,334.513509,421.539343,14.28833,65.098984,3.96906,0
7.066594,196.470709,21259.242246,7.233075,333.297789,425.281512,14.282726,66.064279,3.882068,0
7.214804,196.301536,21277.896681,6.96122,333.448636,425.846844,14.087499,66.988799,3.962575,0
7.059701,197.181276,21471.168256,7.139481,333.353234,422.055855,14.623409,67.651067,3.997162,0
7.886591,213.052591,38852.029636,11.170789,281.700777,326.11535,10.385172,64.662501,4.589984,1
7.221191,198.953897,22385.373121,7.261123,332.30725,427.028832,14.156143,66.986411,4.03962,1
7.170118,200.000064,21877.629868,7.182176,333.429882,426.403286,14.472962,65.466768,3.964617,1
7.068746,196.992658,21547.217316,7.02647,332.061463,425.08104,14.338695,66.792646,3.977461,0
7.22052,197.288177,22057.456746,7.160257,333.721591,424.554451,13.922782,66.838051,4.03864,1
7.1536,195.159389,21129.863056,7.164603,336.993203,434.270867,14.599549,67.125719,4.004672,0
7.149008,196.45108,22960.445014,7.091663,329.451649,426.654496,14.059223,67.842789,3.944447,1
7.113179,195.937927,23214.605359,7.130877,333.508751,422.101444,14.182906,66.831048,4.008239,1
7.126163,192.746867,22509.772979,7.212146,330.916395,425.129374,14.232645,66.261325,4.0331,1
7.106049,194.319645,21667.565538,7.183399,331.62577,420.564569,14.171391,67.107816,3.956831,1
7.16055,195.452716,22314.78366,7.185951,332.503584,428.216878,14.166841,65.260871,3.990614,1
7.017295,170.132446,20169.344252,5.21628,378.226971,512.768439,15.505992,64.624944,4.899611,1
7.077099,196.207135,21792.047544,7.158338,334.072376,429.968877,14.202024,66.930163,3.982035,0
7.011643,198.423994,22239.449519,7.055384,329.027737,426.585604,14.462393,64.467181,3.979876,0
7.074737,196.065147,21932.088693,7.040803,331.727721,434.172319,14.348892,67.354693,4.007569,0
7.068037,197.491296,21707.112937,7.180898,332.802026,423.040654,14.400045,66.669246,3.921631,0
8.692115,144.236358,2552.962804,9.202634,347.975137,517.427471,13.963421,42.388661,2.283475,0
7.178269,196.396998,22486.55843,6.99865,333.77753,420.849167,14.261338,66.865855,3.981479,1
7.399725,258.019947,18535.046452,5.497159,339.838977,354.667312,14.979,73.008496,3.795124,0
7.091623,197.227745,21967.127314,7.007034,332.459032,426.388156,14.531555,66.351921,3.914283,0
7.026869,199.567402,21142.431125,7.082767,332.248031,439.53858,14.053146,65.108277,3.937039,0
4.865444,114.4639,32858.483096,7.47307,365.301135,533.303221,16.1516,45.647388,5.070254,1
7.064998,195.014947,21439.445067,7.215395,332.526431,429.148383,14.066772,66.065452,3.966217,0
9.418296,173.640216,8777.686784,8.456178,358.292064,596.825837,16.785215,105.272456,4.604633,0
6.971683,195.5816,22722.272953,7.304254,329.832233,426.052534,14.445497,66.400209,4.017,1
7.164812,196.877036,21881.719331,7.101376,332.484526,428.509676,14.323484,65.284571,3.970199,0
7.101861,194.217822,21562.17833,7.086904,336.103006,427.417669,14.25138,65.775934,3.942527,0
7.07539,199.641506,21924.590823,7.16268,330.43154,422.750485,14.467922,65.475224,3.985184,1
7.130324,195.894732,22448.111602,7.026966,337.701158,419.687004,14.638704,67.367139,4.007895,0
7.111056,195.869965,22050.699125,7.09294,334.472768,432.874432,14.277019,67.456383,3.98216,0
7.095541,195.806284,21461.280183,7.173686,335.197983,426.396069,14.396231,66.804289,3.931143,0
7.052677,193.747551,22163.638,7.007942,328.709449,428.692738,14.175781,66.563207,3.986992,1
7.141131,194.813596,22806.41339,7.303043,329.780909,422.900338,14.232706,66.122536,3.939045,1
7.19266,196.232009,22073.37387,7.240144,333.337392,424.819462,14.044752,65.917306,3.992435,1
7.036975,196.26588,22090.724734,7.193145,334.237969,425.590695,14.391507,65.306901,4.033673,0
7.117764,193.57337,22294.329793,7.238605,333.93092,430.677388,14.19783,66.718765,4.041739,1
7.386812,195.811605,22557.108944,7.333143,329.702776,424.045611,13.95841,66.086238,4.044997,1
6.995894,197.6036,21247.563938,6.991762,332.240814,429.345206,14.676858,65.71997,3.907885,0
7.151897,196.942788,22463.854173,7.078481,334.020546,423.082103,14.217815,67.090702,3.945523,1
7.022315,196.506884,20841.026901,7.090523,335.499335,431.607151,14.224661,65.094977,3.940987,0
7.080456,198.535143,23189.374945,7.285009,335.077227,421.078709,14.06313,66.087439,3.995069,1
7.043486,197.024414,21767.782761,7.031341,333.176446,430.779137,14.326104,66.599147,3.912151,0
7.064915,194.048309,21708.969431,7.162143,333.528487,421.51755,14.159818,68.358496,3.878978,0
7.040856,193.637496,21765.139489,7.219332,333.406719,419.342272,14.512449,66.903364,4.012788,1
6.453065,178.998245,23129.460178,6.354508,326.853185,371.882763,13.178301,41.525863,3.440859,0
7.11511,191.632677,21951.223995,7.237311,331.497837,428.157774,14.015646,67.15543,3.997785,1
7.12801,194.801416,22498.512934,7.142094,333.071356,429.421727,14.06119,66.090247,3.993429,1
7.091962,192.937276,21100.370769,7.152876,332.742155,422.769943,14.418638,65.886367,3.990727,0
7.414148,235.044534,32555.852537,6.845952,387.175316,411.983364,10.244815,44.489297,3.160624,0
7.051712,199.130063,21707.983619,7.065449,332.345285,431.582963,14.266968,65.604345,3.933481,0
7.664794,223.578473,20259.72585,7.385414,351.161331,510.046897,14.205221,73.19247,5.481691,1
7.12503,196.157595,22530.562859,7.173994,332.345447,425.449973,14.681642,67.710388,3.998483,1
7.194463,197.35881,21814.933336,7.057685,337.138294,436.027721,14.497939,65.085254,4.02717,0
7.002332,196.984142,22573.738387,7.022046,330.201771,426.03867,14.061856,66.772924,3.972437,0
7.14631,196.237307,22440.126269,7.155926,334.063388,422.087132,14.154637,66.877658,3.990389,1
7.102115,195.979277,21321.499344,6.999728,330.876184,428.606896,14.528635,64.773658,3.998975,0
7.075275,196.840882,22320.358143,7.152066,331.130216,426.790313,14.487638,66.201512,3.988373,1
7.101969,199.71458,21416.263633,7.198592,330.765668,424.878981,14.057158,67.074743,4.025668,1
7.142268,194.474476,21064.896384,7.165575,335.289047,431.617635,14.326575,66.541076,3.938967,0
7.056487,197.714745,22409.162277,7.230246,333.76579,419.459587,14.384551,66.374552,3.989363,1
7.138886,195.302873,22473.503761,7.167953,331.996812,415.855571,14.497466,67.061898,3.973306,1
7.166328,197.777756,21570.866008,7.108252,331.227031,425.034314,14.192137,67.237174,3.944208,1
7.011058,193.211236,22969.436235,7.288044,332.894234,429.313479,14.106056,67.669903,3.96635,1
7.039205,197.584745,21437.972931,7.04356,335.526048,426.934753,14.060657,67.092359,4.012477,0
6.538207,214.992866,12330.406568,7.300092,389.817036,465.352665,22.089402,24.532773,3.426266,1
6.974762,199.330724,22004.492634,7.037345,337.848351,425.877949,14.387199,65.951512,3.975217,1
7.000289,194.990994,21121.818695,7.084877,332.877198,422.292558,14.308153,64.792698,3.96872,0
5.983731,221.557383,18438.823395,6.654372,316.778999,443.543934,19.136379,53.661823,3.849383,0
7.198719,195.390813,22299.719297,7.124639,333.12716,426.589089,14.062494,66.192386,4.056792,1
7.025546,194.997595,22777.388086,7.327359,334.718142,426.968807,13.883424,67.734141,4.01337,1
7.105483,195.522079,22833.496258,7.173311,333.003201,416.545518,14.30238,66.820691,3.969681,1
7.075244,194.374618,21947.622854,7.143022,334.12392,428.201633,14.096439,67.94952,4.068076,1
7.099151,197.645879,21831.344483,7.306686,333.157712,428.364028,14.112069,66.293832,4.021824,1
7.050608,198.350621,21949.487459,6.987937,333.370489,426.433517,14.42092,67.701929,3.949298,0
7.145199,195.347349,22305.564483,7.104585,334.965632,427.294539,13.949597,66.053296,4.010811,1
7.074937,195.355107,22624.098081,7.041347,331.947734,423.588166,14.249792,65.020118,3.927556,0
7.087769,196.258763,22743.898259,7.184257,325.925331,430.821072,14.330398,67.471306,3.986365,1
6.921274,196.166551,21937.124464,7.137938,333.068301,423.355042,14.825764,66.350031,3.937745,0
7.084722,192.640457,22655.650585,7.137615,332.098282,431.833043,13.944658,66.816853,4.026756,1
7.094322,194.001329,20720.111963,6.996568,335.048876,429.482966,14.302571,66.164661,4.022475,0
7.050875,197.046525,21577.658546,7.155615,333.659952,429.513341,14.241396,65.264147,3.967641,0
7.103825,196.873105,21690.20802,7.201661,333.076253,427.380701,14.108389,67.337715,4.033189,1
7.104389,196.260057,21694.947664,7.110706,337.436412,428.300356,14.636654,67.215851,3.977205,0
7.287804,195.575508,23093.746244,7.08981,333.601629,424.063908,14.34367,68.359313,3.914129,1
6.665495,222.487772,25319.913867,4.970959,339.05975,318.56433,19.368698,72.716775,3.928495,0
7.036074,193.297272,21540.541077,7.229199,329.968454,429.387816,14.452198,67.488713,3.949373,1
7.101731,196.932219,21711.291098,7.218715,334.754888,426.957516,14.267832,65.754786,3.95674,1
7.259954,194.054099,22727.426138,7.163862,331.279808,418.2006,14.485631,66.102053,4.013922,1
7.221131,194.045257,21895.840299,7.166801,331.438237,425.815053,14.359395,68.21409,4.026465,1
6.974247,196.250842,21455.843006,6.96617,333.213564,430.148028,14.521902,67.075436,3.957684,0
6.987818,198.993939,21350.818028,6.969645,332.733577,425.079034,14.241634,65.826007,3.967415,0
7.304829,193.95024,22874.523587,6.996914,332.0631,423.455182,14.133431,67.157569,3.991252,1
6.95411,196.515303,20841.807512,7.163631,332.750768,424.444173,14.342665,66.918352,4.013624,0
7.12217,197.05907,22142.195069,7.200404,333.571224,419.502839,14.251191,67.354438,3.929556,1
5.498515,180.825114,21542.830032,6.707095,352.250711,419.512958,13.183432,68.90437,3.074815,1
7.152603,196.467557,21079.493026,7.070109,335.109134,428.439802,14.203087,65.960312,3.908818,0
7.029661,196.082143,21864.997137,7.192673,329.288921,421.100866,14.190463,66.828374,3.887213,0
6.959735,197.44413,22138.34391,7.11145,337.002787,429.862758,14.247007,66.245314,3.977115,0
6.994195,216.665319,23027.385262,9.79633,382.152977,369.468072,18.967259,59.651523,4.398901,0
7.046217,197.280635,21681.038174,7.120321,330.256682,431.739664,14.666894,64.375219,4.034651,0
7.247409,194.856775,22304.762902,7.117045,331.903556,430.796137,14.357259,66.431871,3.953412,0
7.165222,196.697737,22987.863178,7.142926,335.849121,423.307252,14.208165,67.619025,3.976122,1
7.050074,190.445662,22519.688965,7.221438,337.499731,418.560813,14.390398,67.170902,3.95489,1
7.110256,195.78763,22266.872474,7.035165,329.887614,433.100875,14.445503,67.731089,3.913661,1
7.115927,190.977824,22279.332222,7.090086,330.316297,421.127374,13.974093,66.657284,3.966659,1
7.017224,194.363887,21148.080879,7.189498,337.406159,421.293924,14.137727,66.111364,3.93112,0
7.034881,194.958723,22143.465697,7.252131,332.662258,427.739247,14.543391,66.564116,4.029072,1
6.917945,195.467685,21539.572146,6.936557,336.208016,423.188284,14.326368,66.262541,3.958284,0
7.121709,196.16687,22509.897261,7.133498,333.033305,424.486981,14.470687,67.099378,3.961155,1
7.100815,195.560088,21765.84414,7.011202,330.664288,429.130455,14.514227,65.452176,3.940754,1
7.181441,196.393221,21717.586352,7.012496,335.439208,422.764779,14.16031,65.50499,3.969215,0
6.965095,196.961768,21408.536112,6.993735,334.896712,433.479529,14.205628,66.94789,3.917797,0
7.211753,195.396549,22358.725032,7.124528,333.053228,422.513339,14.491973,65.601033,4.040561,1
6.989473,195.305045,22375.813493,7.195077,330.561271,421.567196,14.237496,67.296924,4.064929,1
7.024523,195.624244,22452.889398,7.047882,333.353506,430.113749,13.938557,65.521646,3.948987,1
9.900815,199.083752,16233.134679,8.146643,380.11303,345.019852,20.38672,73.381488,2.395002,1
7.222575,195.692364,21858.940126,7.089712,333.801295,431.388486,14.037678,65.673343,3.989941,0
7.130147,194.711795,22063.298039,6.983728,335.204181,430.142963,14.324397,66.822138,3.997841,0
7.148539,197.158636,21503.671039,7.110551,330.348142,435.222123,14.179246,65.6229,4.032318,0
7.139627,194.39042,21049.953559,7.091589,334.433482,430.537742,14.575227,65.952086,4.08325,0
7.109676,193.934835,22005.6234,7.06008,333.461196,427.111049,14.184323,66.19201,3.988943,0
7.110751,195.696751,22489.379664,7.287723,330.545218,426.220892,14.247996,65.600669,3.989912,1
7.188999,195.535443,21956.653844,7.125558,333.071528,425.962629,14.352222,66.724461,3.985919,0
7.880686,226.003844,19486.881839,6.208574,356.338079,472.369094,11.995239,55.029166,3.579984,1
7.032414,193.12363,22740.027006,7.299033,330.443137,427.044637,14.576226,66.924572,3.93292,1
6.911828,198.686682,21279.908387,7.113476,333.91176,426.152083,14.439954,67.07404,4.010991,0
7.055089,193.902867,21534.988666,7.122506,333.234143,425.373878,14.514857,65.875847,4.006077,0
7.473235,223.264936,19932.585225,5.770107,317.708854,590.325126,13.556911,89.453575,3.877714,0
6.946498,195.926241,20728.597701,6.995126,333.30125,430.099985,14.405708,65.719314,3.942208,0
7.055639,194.051381,21899.399894,7.036219,333.631191,423.707399,14.002164,65.947952,3.980479,0
6.972014,196.988356,22048.259752,7.123408,336.09264,421.321764,14.219239,65.952989,3.961016,0
7.792784,187.912476,21093.932205,10.585501,390.40907,463.019373,11.462825,80.921398,4.047381,1
7.137236,197.304904,22247.843436,7.186054,333.108771,433.473741,14.430589,67.15053,4.032969,0
7.109,197.03142,22131.739449,7.124594,331.842187,427.590945,14.601871,65.503571,3.918574,0
7.015932,197.175423,22041.229181,7.084061,335.16314,427.074522,14.387298,66.417544,3.949914,0
5.746529,183.471794,35633.268511,6.066386,327.55785,354.174437,12.548871,70.525972,3.808372,0
7.059997,198.388016,21414.762562,7.062438,332.744785,426.841613,14.300958,66.010572,3.977282,0
10.3164,217.266842,10676.508475,3.445515,397.754946,492.206474,12.812732,72.28192,3.407349,0
7.211546,195.98322,22758.779006,7.118726,331.489608,425.097458,14.509707,66.694971,4.021927,1
7.327054,192.987276,22261.206435,7.230146,333.127212,423.011097,14.228386,65.936822,4.009651,1
7.11325,194.852706,21215.456949,7.032674,332.501213,425.953532,14.349006,67.977937,3.92666,0
7.2154,195.967191,21613.589809,7.094477,333.323017,421.413757,14.210366,65.789185,3.992573,1
7.442023,194.763871,34565.70169,8.493348,294.836218,350.085116,18.962014,79.958321,2.894651,1
7.160308,195.650365,22107.7058,7.156668,330.532797,430.060256,14.378522,65.474196,4.004091,1
7.226859,194.923507,21125.594448,7.149383,334.069493,428.108469,14.352619,67.035027,3.978508,0
6.934311,228.194475,13901.644681,6.045503,281.552116,403.215091,17.8119,66.779338,4.210975,0
7.337924,188.799302,24266.517893,6.84485,326.254701,500.386469,13.373369,65.909057,3.935514,0
7.075663,196.15696,21406.090587,7.179119,335.338366,421.700281,14.184927,67.219693,4.00947,0
6.914077,196.587719,22369.856401,7.152972,330.511154,420.672808,14.312545,66.407058,3.990116,0
7.224757,196.148807,22230.721256,7.132915,334.579928,437.616043,14.533001,65.719063,3.971978,0
4.88173,136.990466,19105.014903,7.264678,419.716412,358.046318,13.399392,75.934052,3.050198,1
7.095088,196.342818,22351.640184,7.205255,331.499122,429.199019,14.205232,67.839858,3.932734,1
7.11685,196.320268,21468.253946,7.029503,334.836239,434.57349,14.180049,65.97236,3.889994,0
7.153271,198.792881,22226.414188,7.266298,333.734121,419.295704,14.319533,66.680259,4.01919,1
7.243759,195.296618,22729.228028,7.116552,330.963221,426.20506,14.214448,65.616753,3.955974,1
7.057196,196.232167,23325.186395,7.05216,332.298785,416.277571,14.015544,66.803066,3.959151,1
7.075038,195.228815,21281.157886,7.19551,333.917766,427.933488,14.238349,65.745948,4.020238,0
7.213375,195.367834,22299.074489,7.174115,330.350828,431.228027,14.169366,66.957127,3.910358,0
6.997454,197.452312,22114.756419,7.085579,330.45564,421.036594,14.486386,67.222511,3.997962,1
7.072041,196.070469,21427.450269,7.094266,336.293192,431.858863,14.533776,66.967671,3.972173,0
7.081625,194.41357,21616.966667,7.103306,333.509522,424.639572,14.178818,68.522964,3.900624,0
5.018132,169.397238,29072.038121,10.711475,297.013272,467.218073,15.913761,23.79295,4.286479,0
9.671797,130.608363,30220.612486,9.309142,370.294867,411.881375,18.024005,76.159718,3.895104,0
7.04638,195.176202,21082.141677,7.129444,334.390928,429.71789,14.321627,65.962895,3.928185,0
7.019275,194.261933,20642.00708,7.152978,333.216222,425.147535,14.161352,66.69106,3.918678,0
7.075196,198.465602,21704.231073,7.043347,335.46327,429.18514,14.376948,65.831569,4.01488,0
7.061831,215.946322,24991.766021,9.138391,321.47336,431.424689,12.950444,64.02559,4.299019,0
7.005021,196.058862,21855.28775,7.052584,336.321105,429.264683,14.226132,65.872218,3.939573,0
7.025723,195.011303,22057.022456,7.229797,334.070023,417.731315,14.605327,65.698026,3.923742,0
6.731278,229.128889,15058.138753,5.119307,315.880099,443.958439,13.782579,76.273839,4.190484,0
7.122642,195.334885,21589.674899,7.244591,333.863584,423.192403,14.233096,67.767968,4.01713,0
7.077272,194.335449,21849.161045,7.254217,328.31744,421.844266,13.942787,66.323581,4.041435,1
7.062241,198.375348,22341.900813,7.051337,329.979968,426.311585,14.298468,67.033937,4.044518,1
6.444555,166.63518,24855.830042,9.492361,287.41238,479.479409,10.697068,65.655326,3.551905,1
7.093452,193.638893,22713.388982,7.212058,329.841818,420.318628,14.191758,66.736482,4.129054,1
7.040852,194.224645,21936.714175,7.098852,329.759888,424.751022,14.313401,66.884921,3.996599,1
7.244811,195.775288,22791.848831,7.431987,331.159518,419.52266,14.406541,66.883126,3.920229,1
7.262535,212.521308,38713.112692,5.837807,262.095022,332.425224,14.098786,70.300741,4.846359,0
7.040399,196.42592,23602.689932,7.34369,333.012549,424.916035,14.1228,66.797429,4.010032,1
7.260577,198.172747,22132.536319,7.011508,334.030572,424.586614,14.428666,66.224156,3.93442,0
7.145377,196.349207,21142.229518,7.271716,331.898332,428.55397,14.228455,65.733785,3.971837,0
6.994608,194.25483,21859.882326,7.08642,336.494795,430.561904,14.476734,66.03567,3.990738,0
8.520807,238.335112,28779.650011,8.282808,381.649323,481.318803,6.016337,39.091171,3.940605,0
6.998171,198.757556,21552.442307,7.311369,332.085949,427.657235,14.440698,65.878467,4.004374,0
6.992345,194.311841,21408.596009,7.088787,334.624211,432.032022,14.473627,65.780595,4.006239,0
8.848103,248.56774,19793.971867,9.681154,323.351749,411.147433,18.137805,68.753074,3.074799,0
6.99883,195.169325,22506.173663,7.312166,331.577997,426.167503,14.32058,66.961134,3.998725,1
7.083362,195.687801,21290.409046,7.160895,333.654498,428.902436,14.69147,66.187654,3.959774,0
6.992868,196.428341,21934.555481,7.113911,336.284682,424.25877,14.365298,66.846123,3.945474,0
6.996684,194.894633,21396.913399,7.024134,333.620004,422.748877,14.404279,65.617938,3.90744,0
7.163962,195.696958,21379.209516,7.200153,333.542188,424.875145,14.141649,67.243929,3.988507,1
7.098814,193.824784,21899.634219,7.260819,332.460365,425.548331,14.62575,66.34842,4.017126,1
7.106698,197.422253,22600.274983,7.242628,334.559042,424.415212,14.102218,66.415799,3.980345,1
7.053649,198.648547,21663.474325,7.006894,335.944279,428.473788,14.43191,65.913986,3.891604,0
7.177467,195.861977,21692.114232,7.16866,330.352983,426.814109,14.189942,68.128414,4.011324,1
7.12038,195.161828,22346.49276,7.181308,333.667169,426.327635,14.39457,66.744421,3.9447,0
7.15792,199.366935,22824.780503,7.302802,331.50651,421.914541,14.416654,66.076987,3.986884,1
7.012655,195.306389,21194.712053,7.089895,333.790814,431.833471,14.659222,65.835375,3.908736,0
8.884935,145.277706,17621.390115,8.267974,341.477474,286.890777,15.194724,42.289054,4.714163,0
7.110494,197.434615,21526.183618,7.08403,332.612036,424.882309,14.334127,66.951817,3.849602,0
7.032279,202.477879,22553.343409,7.255111,334.679942,422.733258,14.340784,65.928009,3.977641,1
7.079907,199.871081,21998.640025,7.192984,328.440904,425.337737,14.358818,67.644936,3.996794,1
7.208053,195.238657,22022.541599,7.192438,330.154539,425.823873,14.234322,66.886873,3.963221,1
6.902001,197.471858,20795.759932,7.160764,335.262413,428.801098,14.322052,65.808631,3.923536,0
7.056171,195.26742,22654.237273,7.14808,333.762933,422.638097,14.347876,65.327237,3.991231,1
6.983606,197.080626,21755.457273,6.996591,334.34648,425.693834,14.272837,66.18296,3.954127,0
7.076468,196.356553,22003.938684,7.168695,333.053468,422.935817,14.129376,66.686478,3.98386,1
7.106259,195.236297,21616.248244,7.020189,332.41551,427.750265,14.620664,65.760588,3.917276,0
6.871607,197.517093,19557.993724,8.311349,355.087258,379.507739,18.240712,65.69423,4.180389,0
7.539287,258.490076,26999.382076,7.002092,266.803123,352.195912,14.650809,59.158843,5.427373,1
7.079754,196.284828,21693.830676,7.043366,335.041303,425.588138,14.48966,67.04154,3.954089,0
5.609235,216.122673,14825.934502,7.001788,355.211678,330.092674,9.779518,41.249977,3.224676,1
7.064137,194.076104,22111.929232,7.143909,334.207513,429.528308,14.159611,66.270113,3.900734,0
7.08592,194.831077,21583.771231,7.259977,335.419044,424.898835,14.504507,66.846199,3.98725,1
7.14903,196.568648,21935.138518,7.224111,331.937786,425.669298,14.531745,66.160642,3.991146,1
8.159667,215.648216,17068.298863,8.769622,319.253201,459.541159,14.192544,60.373722,2.957195,0
8.013516,225.156452,20375.668274,7.837398,308.59481,382.014249,12.666016,78.767052,4.444901,0
6.939394,197.813006,21172.94231,7.066524,336.208774,429.639426,14.338216,67.509658,4.007926,0
7.107914,195.599631,21937.986309,7.269661,335.90629,424.825129,14.279872,66.22651,3.961962,1
6.902747,194.891398,22672.912798,7.133313,330.351889,421.513359,14.271083,66.313865,4.019147,1
7.104732,195.672363,21454.483967,7.117322,333.152253,421.809582,14.359807,66.097914,4.00687,0
7.086879,195.38924,22227.685944,7.028467,331.983827,426.8973,14.46454,67.105889,3.90751,0
7.057741,198.092478,21345.477886,7.092552,337.288371,428.527111,14.349945,65.98332,3.962502,0
7.114868,194.499184,22008.804882,7.272359,334.361753,419.419752,14.452051,65.306996,3.996397,1
7.107363,198.723318,21479.762442,7.169955,328.395884,426.031193,14.397035,67.127464,3.992719,1
6.900142,196.652098,21483.661492,7.157642,335.633594,421.973874,14.607002,66.258658,3.917417,0
7.425102,204.486282,18608.940874,7.434493,318.183297,338.935271,16.244755,94.605311,2.558773,1
7.027878,194.472491,21628.390939,7.159476,331.979403,429.571639,14.212779,65.912104,3.919937,0
7.032681,197.792132,21651.322606,7.307571,333.195943,422.700257,14.348205,66.088661,3.963813,1
6.006769,226.874099,20279.701038,8.166416,225.516628,275.986595,9.650786,52.640025,4.034755,0
7.15487,198.883731,21904.86377,7.024154,332.731396,428.432007,14.243805,66.176077,4.013264,1
6.172517,187.787017,10498.635154,7.722561,322.521035,467.090425,21.233978,68.163642,4.129985,0
6.978664,183.242796,23114.446076,6.500825,323.155777,470.078705,16.082847,65.995717,4.766943,0
7.106358,197.931903,21458.167628,7.095159,335.261593,422.226482,14.540443,65.404239,4.00185,0
7.061816,195.435221,21869.571955,7.159358,328.743508,427.732275,14.395973,66.075611,3.89464,0
7.049107,197.771628,23047.015052,7.058646,336.987917,425.01724,14.143291,65.923203,3.977981,1
7.182341,196.075286,22049.329175,7.226605,332.974916,428.457528,14.167565,64.37508,3.89628,1
7.760189,206.208834,34250.163925,7.930382,299.131598,347.18078,19.350765,80.621872,4.590528,1
7.040252,194.751653,22268.358813,7.246017,336.794178,429.032743,14.391727,66.359563,3.989292,1
7.117976,195.325014,21801.89613,7.175038,332.883567,426.492509,14.501869,66.077325,3.933291,0
7.240893,193.784749,22415.233408,7.308826,330.91851,423.48656,14.482019,66.890463,4.017163,1
7.100127,194.984537,21216.598398,7.041896,331.754933,425.658274,14.524448,64.79214,3.994647,0
7.190786,195.614289,23431.743628,7.24192,334.353937,427.973741,14.388249,67.197965,4.002482,1
7.094781,195.471759,21225.482824,7.080033,334.094015,433.912089,14.140955,65.791226,4.008117,0
7.63357,199.653,16312.154974,9.900547,358.566282,420.534172,10.539392,100.242706,2.927067,0
5.731042,223.704966,1351.906979,6.496723,380.514079,620.304639,14.672927,62.02363,3.675807,1
10.188433,286.567991,7105.800709,9.84054,321.686059,437.879508,12.871599,78.732055,4.635243,0
6.950779,197.209753,22538.359673,7.115118,332.382246,426.893649,14.146125,66.120462,4.072836,1
7.109484,196.176896,22361.388759,7.246969,334.423838,427.587386,14.390757,68.066664,4.011367,1
7.077752,197.235502,22230.610562,7.11992,335.903656,428.385373,14.568371,66.456353,3.941793,0
7.145952,196.477885,21255.494192,7.160224,335.022858,432.037026,14.54662,67.834618,3.963869,0
7.717077,211.681327,21400.016496,6.987854,268.944957,495.914919,11.440747,85.051546,4.967976,1
7.04102,197.165085,21658.236605,7.102534,334.500649,427.021843,14.213941,65.551763,3.940879,0
7.009874,197.247651,22515.61918,6.996678,327.189179,429.139326,14.425037,66.077672,3.904297,0
3.433874,152.480075,16318.733614,5.973098,313.064316,412.915539,9.970144,68.507542,4.104938,0
7.12765,193.576216,21691.170944,7.088586,332.727759,430.542427,14.445678,66.581074,3.959511,0
7.222204,194.069748,21727.526204,7.120629,334.24449,420.078782,14.390901,67.369972,3.964541,0
7.062161,197.425883,20763.836607,7.070976,334.345014,432.083287,14.326825,66.244078,3.987981,0
4.443239,178.956206,25008.532248,4.948815,298.576676,429.544773,17.729724,56.347689,3.268325,0
6.913869,195.792711,21684.757423,7.078942,334.818707,425.657244,14.340143,66.586919,3.945795,0
7.021483,199.254852,21505.362109,7.040849,330.791951,428.44651,14.206497,66.149004,4.043106,1
7.078721,199.320818,22886.417308,7.101702,333.920613,418.318636,14.257689,65.95103,3.941695,1
7.070251,194.790779,22022.777964,6.981015,336.001782,427.379364,14.418143,65.570778,3.915553,0
7.206228,191.284255,22340.30488,7.284243,334.304078,431.919204,14.008708,65.556126,3.965257,1
6.955294,197.252762,21145.079822,7.088791,333.813196,421.455154,14.511487,65.339561,3.936106,0
6.867301,174.184976,24112.153471,5.529942,297.655575,484.122939,11.482687,65.304414,3.823595,0
7.187133,195.109674,22994.89568,7.262486,331.851202,425.061963,14.240315,67.806594,4.042866,1
4.790841,268.720881,17862.369003,4.554574,377.241161,608.846856,10.806313,83.702236,3.258859,1
7.159116,196.17637,21950.781472,7.204384,333.232764,420.786997,14.248155,65.540186,3.992384,1
7.112187,197.091318,21981.550199,7.070092,331.250324,421.570714,14.239293,65.253765,3.992627,1
7.061514,195.662353,21922.775551,6.966958,333.640392,422.825435,14.366661,64.827501,3.967205,0
7.132987,197.601844,22694.668834,7.042026,330.185597,417.112909,14.150346,65.841262,3.947556,1
7.149138,194.234264,21422.574996,7.105294,335.39719,426.546531,14.441428,65.953906,3.940769,0
7.00746,194.810408,22743.212272,7.09603,329.271441,420.220259,14.175971,66.667052,4.066718,1
7.085059,200.126375,22191.204562,7.274498,335.56186,423.819323,14.213101,65.508576,4.046045,1
7.177771,193.803926,21944.503582,7.255323,333.229011,427.496491,14.311256,66.129986,3.974245,1
5.961302,182.108995,23926.078825,6.18879,364.975499,567.526159,7.791638,58.174825,4.919585,0
5.701155,233.515043,41411.601707,5.895464,310.160545,509.767888,22.686837,73.751883,3.403136,0
7.029002,195.574492,21991.675026,7.101435,334.000172,431.648077,14.391527,66.499763,3.929286,0
7.045669,194.759356,21131.904717,7.107813,335.497044,427.327649,14.481871,66.549739,3.933703,0
8.141861,210.376561,25433.465015,8.390812,385.236656,321.867474,11.483524,85.300717,4.13695,0
7.11528,195.88669,22451.980391,7.129149,325.580047,420.774554,14.456896,66.213246,3.9576,1
7.034345,195.365465,22568.882668,7.223317,332.978596,430.24627,14.101319,67.028379,4.011649,1
7.098799,194.361846,21670.74478,7.274104,335.349205,430.674542,14.539678,66.476606,3.947214,0
5.910252,282.739017,15244.846395,6.636551,363.384683,695.369528,13.138353,89.801011,3.660923,1
7.143396,193.408016,21735.167605,7.132534,333.937472,435.154449,14.619423,65.721118,3.886711,0
7.200248,195.562961,22296.060473,7.216586,332.477903,426.481028,14.230955,66.939434,4.050433,1
7.037874,196.881822,22389.919328,7.056195,332.82914,427.19887,14.280474,66.954915,3.93181,1
7.081231,196.357927,22358.391212,7.189621,332.332977,424.220799,14.308437,68.109636,4.013298,1
7.038092,204.923285,24607.088098,8.080156,280.745623,365.845248,10.807557,59.912442,4.237698,0
7.030948,195.961943,21718.397703,7.034649,336.440451,419.608398,14.080672,65.981708,3.916119,0
5.729689,173.975027,14304.763083,5.340088,369.15397,471.679901,16.424227,58.157688,5.100552,1
7.160989,197.272054,22542.162411,7.251354,331.986739,428.702532,14.334876,65.938716,3.982714,1
6.999765,219.143373,16078.459386,7.652135,355.688892,282.502338,17.297556,65.065069,3.360131,1
6.660462,229.339332,9632.730976,11.29939,326.157043,439.121301,21.157991,40.096696,3.673136,0
7.187249,193.536582,22734.487826,7.283359,334.331416,418.375099,14.424273,65.20523,3.971497,1
7.482791,186.093432,19621.325105,8.171865,369.190878,475.21146,12.127254,105.165799,4.094746,0
6.981274,195.521979,22288.910684,7.160644,332.978054,427.44501,14.487256,65.666849,3.916392,1
5.945989,151.685797,12356.905622,7.89412,342.029115,471.122125,15.725467,57.683067,3.793329,1
7.032965,197.801043,22140.174371,7.006103,332.097886,426.373868,14.12868,66.375177,3.946038,0
7.22768,194.687454,22079.974736,7.065837,328.416195,424.449454,14.023468,67.265907,3.976409,1
7.14564,199.428122,21885.717256,7.194854,334.003862,425.608884,14.740852,67.863746,3.925268,0
7.091928,198.846735,22055.0322,7.104829,333.22315,425.411671,14.366652,65.4571,4.005007,1
7.065923,193.566703,21313.215525,7.044473,329.111169,427.818031,14.391077,66.767765,3.999318,1
7.192092,194.388259,22379.77388,7.408998,331.197335,422.979948,14.308455,67.353616,3.992312,1
7.118377,193.876044,21950.77107,7.201604,327.133081,423.696016,14.269888,68.0175,3.929173,1
7.218436,198.232793,21663.933882,7.072926,335.361995,431.874983,14.453847,65.532749,3.971176,0
7.019753,195.484475,21922.17856,7.123689,334.688735,422.158815,14.594439,66.876099,3.94153,0
7.072971,197.539258,22079.567987,7.194281,331.304681,430.473157,14.356284,67.867521,3.967248,1
7.164525,198.678764,22749.404256,7.127368,333.959966,427.778759,14.103915,67.580188,3.980483,1
7.141306,196.331867,22244.32167,7.107369,329.51458,432.113865,14.244845,66.260226,4.059144,1
7.138818,191.687237,22286.623005,7.193854,333.372472,428.607701,14.058221,65.791222,3.987655,1
7.161116,194.790477,21791.218662,7.141254,336.752533,431.827318,14.283796,65.170807,3.903621,0
6.984166,199.570858,22205.228184,7.192124,329.6696,420.981637,13.909563,66.214685,3.959457,1
7.08326,194.83899,23300.07596,7.129244,328.149633,428.434964,14.527108,65.467634,3.983023,1
7.01958,198.914414,21233.088106,7.081466,332.758451,429.561311,14.371222,65.99471,3.915051,0
6.96562,194.938745,21986.05922,7.026834,334.751744,425.728904,14.400939,66.929291,3.950859,0
5.844674,147.179804,13615.109758,8.881112,394.65838,533.04021,14.217373,91.614031,4.338056,1
7.111943,196.503272,21842.399734,7.096016,332.495401,421.936846,14.522117,65.523694,3.956209,0
7.057851,194.479209,21698.817358,7.105016,333.317553,430.060436,14.038095,66.605755,3.882889,0
7.119634,193.430901,21485.424379,7.038843,330.605534,430.500701,14.480109,65.938967,3.919504,0
6.093092,208.908022,21456.604422,9.600683,263.45349,459.015554,19.296765,31.007235,4.523558,0
7.107825,197.023507,23226.177438,7.028546,333.665954,421.669163,14.547591,66.737936,4.045237,1
7.083834,196.039454,22379.548993,7.219473,334.316717,422.275719,14.253337,67.678564,3.977906,1
7.025801,197.527511,21255.85082,7.037036,335.941842,418.761098,14.130505,65.674841,3.96184,0
7.09097,197.233107,21542.720088,7.226158,332.810098,424.1508,14.566474,65.216793,3.937577,0
7.076282,195.597077,20919.267754,7.192965,332.59285,431.823276,14.363111,65.48683,3.94001,0
7.201202,196.458427,22008.278793,7.114501,330.817731,417.421131,14.171641,67.322695,3.997823,1
6.984863,197.050084,21989.301746,7.076056,333.124052,430.538398,14.50715,65.95356,3.984924,0
7.078237,196.391886,21712.826889,7.167734,333.240556,430.750127,14.361452,67.379814,4.006903,1
7.166034,199.754024,21686.476404,7.218095,340.518555,426.661301,14.500122,66.864951,4.014581,1
7.054474,194.459918,21658.263855,7.032451,332.924837,425.917986,14.441935,67.047147,3.997525,1
7.214842,198.265224,22430.502115,7.210378,330.901081,427.041889,14.237469,67.009136,3.98566,1
7.192385,196.095226,22059.139152,7.106526,331.325312,420.70628,14.00217,65.122906,3.93606,1
7.181124,196.171445,22573.383036,7.226542,327.773683,423.539737,14.199186,64.87489,3.994757,1
7.167422,196.448526,22284.335956,7.175911,329.683052,425.451595,14.115776,67.099334,4.050246,1
7.101102,196.97742,22297.906763,7.088195,336.256935,431.741936,14.48523,65.678446,3.949375,0
7.113609,195.456253,21866.072836,6.93856,335.091428,429.31972,14.185671,65.860678,3.932049,0
7.071106,198.538048,21150.721943,7.151372,335.882191,430.249079,14.735875,67.926797,3.98435,0
7.129003,196.366647,22694.960695,7.203357,335.484696,421.461642,14.645936,66.836868,3.967183,1
7.129592,194.783293,21280.744931,7.242091,336.075428,422.592115,14.545863,68.047432,4.005007,0
7.085985,195.83174,21299.652938,7.096518,338.808694,430.725075,14.238328,65.679612,3.919271,0
7.049741,197.409334,22358.908439,7.202444,332.372794,429.939069,14.093411,66.442523,3.966191,1
7.03078,195.368514,21311.264707,7.134877,333.586432,429.978585,14.354652,68.198468,3.929562,0
7.19996,193.74059,22265.663479,7.103685,332.64891,418.654309,14.08642,66.559701,3.917023,1
7.156058,194.979132,21904.186305,7.080972,333.982267,422.1372,14.444233,66.732325,3.933624,0
7.198098,195.846835,22437.458001,7.110647,331.753689,426.46841,14.416685,67.921878,4.032371,1
7.100726,196.036969,21086.742916,7.09007,332.939896,424.185781,14.296681,64.907741,3.961829,0
6.985388,194.665237,21092.685695,7.119072,331.583093,426.424672,14.303484,67.080079,3.933742,0
7.118032,194.500704,21326.961835,7.10293,332.425451,425.181157,14.29766,65.729302,3.959786,0
7.019024,195.947648,21640.746405,7.028222,333.053411,433.638114,14.170434,65.909733,3.950258,0
7.072156,196.641904,21672.063711,7.002754,335.9351,421.310505,14.489313,67.075851,3.977731,0
7.053117,240.85177,19500.349983,8.051173,383.667866,377.188125,12.955577,55.522195,5.671999,0
7.116619,196.615135,21435.294668,7.179688,331.079923,429.387861,14.35012,65.95178,3.925508,0
5.041405,193.167853,17342.314079,7.842975,322.106997,444.453496,17.472788,66.542198,4.543686,0
7.030002,196.216339,21728.079394,7.153986,334.18842,423.040443,14.169543,67.420741,3.952106,0
7.022348,196.745253,22974.50386,7.187105,331.958072,419.680909,14.406519,67.777494,3.922381,1
7.099016,194.208363,22476.925835,7.189104,333.098355,429.076151,14.384011,68.464444,3.903981,1
7.095841,200.525718,22529.224458,7.313726,330.947952,417.854989,14.193921,67.525876,4.017046,1
7.19497,198.615607,21379.16769,7.107786,329.829476,437.347182,14.245345,67.275136,3.932374,0
7.198933,196.741324,22058.732733,7.176973,336.387787,437.415274,14.511347,66.661694,3.83571,0
7.130023,196.232877,22339.204227,7.062839,329.533808,425.618261,14.131929,65.795493,4.054859,1
6.209697,169.318505,22610.768713,4.875414,327.379939,549.276728,17.015118,51.505508,3.893767,0
7.024985,194.252755,20537.836504,7.1289,334.738192,429.208017,14.406272,66.815205,3.940021,0
7.169301,194.911914,21608.167588,7.134952,336.448311,425.365049,14.095427,66.109492,3.970604,0
7.088549,195.782481,21335.841324,7.045384,332.42333,432.133957,14.892621,66.407346,4.013645,0
7.217837,195.83893,22760.071986,7.146465,336.742206,425.05914,14.204479,66.950392,4.003502,1
7.182802,194.784518,21343.167682,6.955223,333.160291,425.399812,14.330555,65.052277,3.893975,0
7.102831,194.738585,22580.992401,7.062354,333.764812,423.539634,14.285649,67.06623,3.933306,1
7.125872,193.422018,21901.8105,7.076884,334.639369,426.872598,14.440301,66.278989,3.980828,1
7.051066,197.428812,21667.455547,7.141724,333.618413,423.634341,14.100945,66.821446,3.916886,0
7.058568,196.631308,22304.932815,7.273003,330.954117,426.743222,14.289572,67.980555,3.95426,1
7.087952,196.021856,22375.465983,7.195217,336.905667,424.165929,14.241659,66.891532,3.985825,1
7.074302,194.314486,22038.53322,7.172338,331.42708,429.52677,14.316743,66.215479,3.923207,0
7.10734,201.745847,21845.131978,7.210895,330.164053,425.67943,14.366069,67.589705,3.952005,1
7.084499,194.620166,21628.94548,7.14141,332.245297,421.314251,14.385633,66.572119,4.061455,0
8.275796,163.355961,22013.964905,5.742829,307.667123,351.631315,20.057619,78.501492,4.72134,1
7.093924,197.283839,21585.015565,7.191255,336.483132,427.057764,14.236431,66.972307,3.952768,0
6.940534,194.211921,21627.646652,7.121818,335.020381,428.477685,14.679472,66.95787,3.93972,0
7.039039,196.745741,22106.517244,7.100364,333.706827,430.248363,14.208755,66.478638,3.961258,1
7.098653,196.086261,22129.452371,7.030647,332.615204,428.762466,14.213385,66.812222,4.01359,1
6.997157,197.295528,22267.651267,7.016818,333.088298,426.792308,14.298997,66.508215,3.914554,0
7.050024,193.95438,22305.587472,7.275298,333.765283,427.270519,14.295233,66.895825,3.962228,1
7.11876,196.247105,21597.110847,7.147454,330.646989,421.657403,14.385722,65.874697,3.920615,0
7.175204,193.521356,22210.91027,7.199565,332.490948,428.996432,14.337464,66.703866,3.952971,1
7.1186,194.871111,21472.102747,7.069306,331.775754,432.68015,14.124755,67.284476,3.942637,0
7.183075,194.308869,22005.166614,7.400861,330.226405,418.878064,14.448699,66.210632,4.032834,1
7.611982,190.662804,9138.029344,5.224256,329.580679,577.444713,17.209367,65.333241,6.494749,0
7.082119,200.639524,21556.364597,7.253247,333.979174,423.939008,14.211657,65.892785,3.958451,1
7.055832,193.671563,22003.249904,7.114084,330.345759,429.946764,14.360204,67.07536,3.920073,0
7.10849,197.552402,22481.339428,7.281684,331.844139,430.792191,14.170916,66.300326,4.046126,1
6.75666,212.641858,22112.746346,8.33221,275.240444,387.562192,14.174063,76.31744,4.184874,0
6.967355,196.638901,21041.57406,6.980596,335.63775,428.548587,14.655468,66.125135,3.96816,0
6.457098,192.264945,18340.046806,8.832138,335.970114,517.432197,23.373265,51.7971,2.637365,0
7.038092,194.186347,21221.4294,7.168037,334.685807,424.59938,14.502998,68.03953,3.916106,0
7.167994,197.089471,22274.2211,7.052264,332.90698,428.882869,14.31511,66.698512,3.955567,0
7.093668,197.755404,21912.502451,7.165883,332.561881,425.927486,14.664889,66.209728,4.010316,1
6.613709,141.128922,25648.569496,7.222972,295.236892,374.770316,14.038263,74.29925,3.539771,0
7.13359,197.926438,22456.648198,7.170546,326.989541,424.565744,14.591602,68.017686,3.987852,1
9.495456,185.878594,18088.35485,7.527375,388.768657,409.450998,12.397704,63.359144,4.168541,1
8.149437,220.203735,23978.107683,7.384126,360.414005,461.804548,13.364677,103.38021,4.949257,1
7.117134,195.381975,20983.55531,7.05759,332.363071,427.957657,14.258917,65.657519,3.899722,0
7.184407,196.913319,23022.397577,7.187161,332.022584,422.439861,14.303551,67.919172,3.996917,1
7.157245,197.110148,21869.679447,7.16822,332.735973,431.905059,14.457142,66.524992,3.949106,0
7.001333,195.385941,21367.555557,6.994059,333.99908,425.146967,14.326703,66.935304,4.021757,0
7.240351,201.997196,14462.674308,6.737176,314.043137,534.800988,14.213794,82.945817,3.782972,0
7.119055,195.096613,21156.392375,7.134959,331.663443,424.349858,14.288442,65.505576,3.971245,0
7.111766,197.284388,21525.234145,7.080447,335.549278,436.728454,14.373238,67.341488,3.974792,0
7.115686,195.864367,22337.074267,7.081838,335.711285,428.329048,14.240571,65.252564,3.973062,1
7.780869,221.844493,40483.730389,6.146098,302.329674,563.719967,11.753046,51.559465,4.602027,1
7.053082,197.028565,22571.296962,7.156644,334.13221,429.831501,14.254063,65.310983,3.986375,0
7.154004,196.51097,21683.306685,7.036838,332.818401,422.858081,14.566069,66.086427,3.976958,0
7.226564,197.834132,21224.638987,7.037574,335.16088,423.516303,14.459752,66.109199,3.910908,0
7.183783,196.767688,21570.428966,6.99466,330.807061,423.274817,14.287893,66.709704,3.937931,0
7.071961,194.951088,21785.230521,7.117417,334.561972,426.067452,14.145005,66.122533,3.910311,0
7.09991,196.497122,21248.905651,7.048209,333.086461,430.526962,14.536155,66.626144,3.98427,0
7.045032,195.052765,21885.451007,7.048253,334.543976,427.439611,14.429918,65.305563,3.885792,0
7.057554,196.374182,21893.149256,7.110847,333.112685,432.168621,14.348532,66.246673,3.902014,0
6.982232,196.050877,21752.15653,7.061933,334.834469,427.151701,14.449795,66.264562,3.998238,0
7.029914,197.452246,21446.678844,7.07672,332.178583,429.364348,14.530995,66.241644,3.987847,1
7.088982,196.833536,22900.628797,7.154691,330.179068,427.790023,14.334349,67.850216,3.982618,1
8.12827,231.167537,19954.575554,5.138838,349.067363,386.071149,15.018085,63.340968,4.678742,1
7.098207,195.648872,21516.925885,7.104547,335.402688,428.745173,14.219084,66.842249,3.988007,0
8.174028,192.39043,19808.537766,6.955821,377.700189,503.522172,13.780973,59.542769,3.986781,0
7.15845,194.924576,21841.633068,7.063606,336.030591,421.520118,14.209304,66.717131,3.932422,0
9.96069,169.925248,15835.122818,7.143907,301.777253,388.897159,13.563992,71.593866,3.434538,1
7.301445,143.43135,46718.555965,4.768781,252.466485,446.839673,12.575417,60.648404,3.160075,1
7.084958,195.392592,21915.881765,7.248445,333.357511,418.153636,14.282701,68.172851,4.035696,1
7.179552,196.047993,21715.299486,7.092942,330.569511,423.203469,14.000711,66.816676,3.902771,1
7.068487,198.371681,22050.751764,7.153239,333.606742,430.734499,14.498437,65.660838,3.938934,0
7.179636,194.025922,20690.193748,7.066981,334.066067,429.768083,14.225564,66.941858,3.942964,0
7.107994,196.59435,21766.695848,7.062994,332.493128,431.398578,14.385986,66.965131,3.999104,0
7.170911,194.610503,22632.104394,7.027763,334.923008,428.719614,14.063349,66.438502,4.037209,1
6.340809,158.342741,15288.213774,7.599752,342.4477,334.937302,9.237118,38.103917,5.45861,0
5.991283,224.608563,29983.116007,7.383819,329.731547,604.631263,17.741228,65.116976,4.840562,1
7.153031,194.469428,22864.067092,7.141942,332.092275,426.517967,14.502353,66.333013,3.995527,1
7.056256,194.278141,22832.48256,7.128158,329.006216,426.947857,14.128902,65.536723,3.939999,1
7.053417,198.047387,21872.529285,7.247567,329.72063,424.795114,14.698956,65.514175,3.972607,0
8.394397,187.643411,10603.098021,7.840261,352.83564,376.241146,13.374831,58.950002,2.833901,0
6.91792,223.332959,17862.142732,7.99589,299.402773,428.948023,12.230908,68.836829,2.691485,0
7.136259,194.230703,21700.943917,7.043126,331.413903,425.404152,14.221686,66.114103,4.012804,0
7.058193,195.787622,22443.976345,7.190065,330.837267,427.254332,14.061095,66.346047,3.989365,1
7.052972,194.924374,22285.586826,7.241964,334.156985,429.922421,14.018889,67.616285,3.970543,1
6.455005,176.683973,24468.04839,5.75693,314.799598,477.581346,16.245504,57.729724,2.293431,0
7.077939,195.337432,21453.641429,7.033591,335.139453,423.061041,14.444027,67.242116,3.906675,0
7.050938,195.609091,21405.94212,7.089683,333.572131,430.380677,14.222349,66.320173,3.941993,0
7.261551,179.889788,24964.777703,5.837086,349.269271,501.182781,17.287713,50.993006,3.636364,0
6.974379,198.7834,22347.179096,7.130197,330.499514,430.407034,14.406739,65.583022,3.974539,0
7.094229,197.532298,21661.34517,7.020376,332.878525,428.278777,14.819773,66.440335,3.949469,0
7.062089,196.898415,22940.571033,7.123829,330.874829,419.756075,14.252081,66.368191,4.033916,1
5.606315,190.335273,12308.233835,8.548754,311.680166,399.606494,18.52432,67.22634,3.748741,0
9.055826,196.475899,20226.287945,5.838594,298.80356,342.359411,12.813634,84.279218,5.456913,0
7.665188,209.997246,22993.72935,5.543901,343.49422,417.738988,7.750607,63.551822,2.707129,0
7.154206,192.429477,21935.094849,7.132748,335.141716,426.10654,14.379129,65.188326,4.033395,0
7.143766,196.158498,22184.430076,7.060242,334.319351,425.089824,14.303285,65.953673,3.992621,0
7.119174,196.686962,22401.195758,7.181684,334.104992,425.842281,14.403392,67.855435,3.961772,1
7.029685,196.456626,22481.934732,7.147317,332.758359,422.755565,14.43906,66.800074,4.0201,1
7.004962,196.02858,21503.327454,7.139779,334.199693,430.039488,14.180253,66.697167,3.957237,0
7.28056,228.539543,29690.917158,7.871025,322.269661,392.532597,15.168189,84.370713,2.919796,1
8.616824,228.762945,19126.298537,7.017578,327.894821,383.527023,14.759257,41.275927,4.584566,0
7.029076,197.438646,21023.796333,7.032421,331.320389,421.358861,14.300552,65.445702,3.983262,0
7.205999,194.536191,22050.747405,7.166728,333.940484,436.142264,14.310766,65.55634,3.967756,1
7.150392,194.499684,21238.490083,7.073,336.862565,429.151469,14.32563,66.497771,4.008379,1
6.921164,194.771369,20532.379523,7.039459,334.840313,429.443796,14.299447,65.982985,3.990986,0
7.037749,196.784216,21892.255149,7.035662,329.051214,428.84925,14.549216,66.599174,3.964311,0
7.221693,196.767308,22887.708874,7.268192,331.621633,426.327669,14.134056,67.809284,3.981448,1
5.335689,178.640119,37993.182755,9.772522,343.258359,465.072796,14.834257,65.326531,3.921976,1
7.067944,197.134587,21275.760289,7.143403,333.09404,430.687033,14.424529,67.036813,3.957498,0
7.138212,196.601977,23025.298485,7.229696,329.728039,424.414752,14.115094,66.488082,4.001845,1
7.368769,213.197019,18452.022995,8.292445,294.344858,496.270851,10.545092,94.837743,3.813881,1
7.873272,182.646658,25337.122963,3.715065,362.484604,315.189948,12.132425,65.499925,3.306393,0
7.027992,196.445544,21907.608393,7.109029,332.997696,418.289517,14.608166,67.302374,3.936414,0
7.085462,195.987913,21356.099116,7.110648,334.489164,432.204307,14.350252,65.830173,3.967164,0
7.069845,197.492512,21445.412424,7.1317,335.27416,433.279071,14.286826,66.623057,4.015561,1
7.046087,196.732945,22050.816402,7.053346,333.128413,425.947176,14.315943,65.314709,3.95898,0
7.609521,223.288394,40879.789573,7.030699,310.63245,370.27088,14.375368,73.756957,3.145843,0
9.776932,213.91508,23971.989519,9.603302,293.825008,507.016573,16.066561,82.860936,2.569468,1
7.140118,196.708281,21822.075087,7.120949,330.435537,429.703973,14.008136,67.007886,4.002849,1
6.657794,205.543176,18844.037031,6.734228,363.39793,555.899038,8.006966,66.934782,3.868926,0
7.120597,196.984754,21844.50024,7.117854,331.355611,428.951704,14.264518,67.531949,3.902322,0
5.913133,184.393156,40847.760146,7.041828,331.959964,563.40997,21.917377,58.839203,3.900211,1
7.098966,198.522074,22642.218109,7.266552,330.15935,422.040677,14.122759,67.492595,3.982483,1
7.242101,197.634279,21949.109817,7.23003,330.709206,428.116695,14.417118,66.196889,3.987057,1
5.967274,187.085084,30846.585474,7.281106,339.063715,323.962695,12.651854,72.27359,3.914544,0
7.106587,196.579546,22260.95828,7.209954,332.618654,423.372555,14.426963,66.546093,3.999983,1
10.337671,163.276225,21820.295875,7.899521,356.179637,561.206238,14.116324,56.193061,5.063109,0
7.126161,193.759427,21062.191827,7.05864,332.075072,423.312853,14.538248,65.520336,3.864781,0
7.075376,196.470052,22172.207599,7.235912,329.301935,425.082644,14.419498,65.678632,4.013878,1
6.967553,197.251248,21565.387683,6.969741,329.928126,423.39791,14.353762,66.283725,3.942797,0
7.10773,194.836861,21382.264273,7.032229,338.289376,432.687585,14.441353,64.91837,3.989441,0
7.196301,194.183564,22408.714613,7.110384,329.854991,422.638073,14.197338,67.587042,3.983579,1
7.042794,194.046719,16733.124103,7.701926,350.243966,504.925466,19.703422,82.253454,3.965647,0
7.744773,208.92034,27648.159653,5.622572,332.823799,397.057474,12.486192,73.184557,5.016321,0
7.08231,195.48994,21945.967364,7.151885,335.76728,426.710676,14.55785,65.169302,3.970871,0
8.330743,198.9958,28919.811775,7.436214,304.293848,429.2255,14.713229,83.627824,2.408049,0
7.078132,194.672385,21682.463405,6.951285,334.046424,426.227727,14.078556,66.433226,3.908661,0
7.246115,198.62007,22457.246384,7.226082,327.239895,431.525495,14.190508,66.828972,4.006698,1
7.130218,196.750614,21304.809896,7.030323,334.037226,431.033867,14.192969,66.993933,3.896882,0
7.064147,197.254783,21983.075763,7.133065,329.833664,427.198079,14.298348,68.02685,4.007728,1
7.118974,195.857776,21556.701779,7.14975,336.925761,425.293318,14.46397,66.276671,3.886091,0
6.95227,195.199273,21750.69266,7.154311,330.392198,424.699423,14.067343,66.028235,3.96849,0
7.094781,195.941504,21769.846605,7.176251,330.102008,424.109591,14.011183,67.453293,4.06211,1
7.332407,196.010787,22560.501942,7.24016,331.753174,425.3658,14.587159,67.102929,3.991787,1
7.018654,195.726734,21693.740133,7.291616,334.402957,425.737449,14.564424,66.785427,3.957049,1
7.054002,194.924391,22944.867239,7.059192,331.986066,425.120304,14.353232,64.675162,3.995826,1
6.965005,195.72635,21570.694002,7.124144,333.609206,426.989652,14.510277,65.944915,3.913743,0
7.050029,197.146307,21435.344422,7.227298,333.660899,423.688203,14.080416,66.578019,3.976505,0
7.175582,194.930739,21946.333024,6.997714,335.092593,424.572364,14.227104,66.198871,3.937016,0
7.123597,197.654347,22364.772369,7.224115,332.655043,426.076085,14.188772,65.431151,3.946798,0
7.216783,195.474727,22562.038879,7.199011,330.697285,424.070224,14.379002,67.324821,3.998997,1
7.161431,196.747519,21457.433825,7.164836,335.132474,428.662584,14.418286,67.047763,3.898243,0
7.111409,196.1201,22840.82518,7.054738,330.034243,419.052581,14.333856,66.237013,3.996087,1
7.235569,193.372349,21690.082973,6.902007,333.282714,424.579142,14.339893,66.183137,3.923442,0
7.101894,194.809464,20893.369382,7.027058,332.773478,431.547642,14.57015,66.889609,3.939491,0
7.125091,197.92949,23017.311885,7.312362,335.019038,428.468054,14.383151,66.106625,3.965576,1
7.140778,195.084232,22146.317505,7.13682,331.872666,424.494824,14.517764,65.826328,3.950498,0
7.108066,196.108907,21263.553852,7.035227,333.93206,419.498371,14.449482,66.308075,3.915004,0
6.33364,185.43634,18506.288609,6.572682,356.971033,366.813108,16.439629,76.764385,3.982002,1
7.025657,196.662733,22925.732916,7.205463,329.57031,428.160977,14.282514,66.829597,3.948881,1
7.069327,197.15196,22238.560526,7.267066,329.254031,420.644835,14.647919,65.246573,4.049606,1
7.288227,193.844269,22527.585037,7.307421,331.193288,426.722587,14.273981,66.039408,3.946043,1
7.028824,197.652015,22289.956643,7.058295,331.902044,425.07054,14.314087,65.653138,3.996837,1
6.936473,196.065467,22393.28485,7.147883,332.13255,427.297138,14.190263,66.489058,3.895469,0
7.075173,196.636798,20989.673324,7.187426,334.215142,432.596933,14.488432,65.845568,3.985688,0
7.203334,196.930877,21938.954952,7.094696,332.812963,424.923056,14.16475,66.530598,4.061676,1
5.813546,184.031776,10112.207322,6.536992,309.451187,441.594027,11.438175,77.508193,3.721426,0
7.100713,194.144703,23283.326611,7.287545,332.318762,423.073417,14.339504,67.691959,3.998869,1
7.003254,195.727149,22110.189823,7.041987,330.763691,425.85415,14.196058,65.547916,4.028671,0
8.524296,141.810243,12658.177161,11.264386,347.268092,387.085887,12.789958,69.577099,4.34306,0
7.244534,197.560891,23300.386505,7.146689,334.747522,427.150145,14.577251,67.441174,3.96672,1
5.985012,151.360967,20155.434469,7.723292,275.079738,478.33236,18.016266,99.061233,3.7641,1
7.187596,194.094096,21207.762262,7.087757,336.815446,433.741129,14.437703,66.912521,3.961897,0
7.027763,200.085782,22954.345838,7.121423,334.73781,427.977251,14.284002,66.384573,3.94902,1
7.19864,191.775317,21796.41136,7.133077,332.865771,427.031229,14.319216,64.502148,3.829313,0
7.152065,194.833603,22203.514604,7.171633,330.270762,426.198434,14.213224,66.977726,3.98374,1
7.186671,196.88109,21675.025319,7.007977,330.841928,430.978412,14.487727,66.735829,3.983763,0
7.062625,195.887953,21887.406922,6.949233,332.833591,428.228311,14.58137,66.026608,3.9516,0
7.113889,196.259164,21410.301969,7.106233,335.599785,428.172455,14.721981,67.040702,3.944442,0
7.09342,196.698713,22629.031088,7.248261,329.307219,425.312256,14.345747,66.394304,4.01821,1
7.086018,195.647407,21732.775734,7.254051,334.304633,424.820684,14.68274,65.671461,3.83416,0
6.913777,196.890979,21533.840346,7.063152,332.070485,420.301256,14.357205,66.669746,3.950236,0
6.998728,196.378185,21534.65134,7.180245,333.972428,429.622786,14.343397,65.543891,3.987987,0
6.977182,197.140678,21374.636296,7.04201,332.165022,428.46739,14.389217,66.36276,3.976363,0
7.23881,194.6298,22779.224518,7.201098,338.351296,422.252864,14.580463,67.618905,3.944416,1
7.890354,180.158098,32160.533923,7.773484,360.283983,344.550619,11.24646,60.292187,3.209588,1
7.984711,121.067357,40709.781663,5.796841,445.359547,338.509984,12.818816,59.269193,4.56788,0
7.093534,196.926483,22194.038741,7.238712,330.907695,421.060977,14.230665,67.218441,4.024501,1
7.061914,198.808682,22674.590749,7.182666,333.834652,425.329129,14.305868,67.144616,3.937867,1
7.088619,199.561096,22298.135523,7.183607,330.705098,426.93454,14.368829,67.333287,4.003298,1
7.032659,197.093959,21547.274505,7.26179,333.217246,432.340212,14.447136,65.101184,3.992809,0
7.098988,195.964598,21934.711998,6.970144,335.765328,430.916531,14.392814,66.811027,3.958844,0
7.08617,197.67699,22055.019372,7.227911,331.387763,422.987671,14.127436,66.556089,3.938935,1
7.088027,193.148946,22898.448684,7.124459,332.770569,418.58605,14.380368,66.771052,3.913524,1
7.073609,194.789654,21791.856878,7.120618,331.813953,427.703375,14.454832,66.18038,3.943088,1
6.412707,204.358097,32333.841542,5.204084,345.7175,389.215295,11.14504,91.204867,5.014145,0
6.347272,186.732881,41065.234765,9.629596,364.487687,516.743282,11.539781,75.071617,4.376348,0
7.098608,197.66738,22324.47426,7.190435,334.234615,428.359015,14.648496,68.741184,3.990021,0
5.905907,223.141882,13464.487162,9.125164,378.108306,337.858264,13.53166,42.844511,2.917284,1
6.986706,194.948529,21891.620252,7.022944,335.401721,429.239914,14.282768,65.706437,3.975912,0
7.117958,198.168376,22184.419193,7.195261,332.660351,418.626396,13.998517,66.73959,3.998009,1
3.928556,191.665998,17328.161457,7.692417,306.479558,406.085614,9.578602,45.480738,5.060836,0
8.06417,209.839333,8712.002588,8.59151,355.443721,338.848158,18.721312,106.243066,3.246077,0
7.080433,194.719131,22111.603255,7.071092,332.089772,427.574269,14.483448,65.11654,3.908581,0
6.930385,197.742432,21999.269822,7.095088,334.117106,426.484866,14.531979,65.316687,3.948263,0
7.207118,195.355328,21580.80393,7.121804,333.046897,431.133727,14.274989,67.175353,4.008975,0
7.127762,197.228333,22997.295046,7.099285,337.168654,426.535768,14.157475,66.984914,3.986484,1
7.100267,195.965087,23159.105637,7.067226,333.431361,422.312354,14.168073,67.229141,4.036199,1
7.159775,197.378951,22740.913479,7.126621,328.468615,423.978903,14.322469,66.206716,3.978732,1
7.187981,195.155947,23065.767367,7.085452,329.640232,432.543919,14.408377,67.497487,3.983555,1
7.167898,194.97352,21720.943893,6.914496,330.824496,428.716894,14.168726,65.982466,3.923428,1
6.83233,195.084181,22913.927467,7.08508,330.879112,430.963705,14.301207,65.109489,3.952696,1
5.495035,184.434836,26744.301742,7.356517,332.030285,459.642172,18.417924,71.875574,4.115428,0
7.112209,197.229431,23083.581119,6.984191,336.112977,429.383048,14.248956,66.929902,4.044103,1
6.968735,197.896603,22140.945069,7.060863,332.302943,428.568929,14.669781,64.968757,3.91882,0
7.17983,197.813414,22043.170705,7.139927,333.712192,433.554136,14.441648,67.675349,3.979213,0
7.01381,195.417718,21895.394132,7.026013,332.60442,422.345592,14.327956,65.629585,4.035786,1
7.167878,196.139983,22712.946165,7.066549,332.971025,422.608058,14.136481,67.055836,3.92852,1
7.168225,197.315099,21376.014317,7.193767,334.124004,428.079935,14.488958,66.052213,3.972547,0
7,195.181077,22061.296898,7.106188,336.15997,419.782789,14.28562,65.906956,3.945368,0
6.044672,150.671021,13593.600018,6.456238,401.737392,392.206741,19.827392,43.564293,4.914884,1
7.198429,193.770905,21801.744341,7.050454,331.931551,431.829868,14.220062,65.540644,3.917638,0
7.097279,194.107006,21143.215081,7.060993,334.005664,420.166639,14.199208,65.343275,3.999668,0
7.041628,196.879191,21674.877127,7.157157,337.776258,422.385051,14.588119,66.126702,3.944416,0
7.13299,195.764427,22494.483999,7.196116,330.654575,425.402805,14.361314,66.924948,3.898173,1
6.433726,176.857122,26755.718839,6.533469,316.541468,505.122015,21.319607,60.126344,3.117918,0
7.019756,196.224293,21450.442709,7.174547,328.727626,425.182545,14.416967,67.025597,3.935148,1
7.947486,269.809407,34440.773434,6.958283,390.104223,425.627814,13.749261,56.635811,3.700854,0
7.262285,197.328329,22277.557265,7.066279,333.749019,431.430683,14.450258,68.859636,3.937416,0
6.451504,179.528925,7990.891468,6.196876,377.269841,386.541761,15.434513,74.99252,6.307678,1
6.980513,196.648261,22440.976381,7.022063,332.440504,423.395989,14.293738,66.278794,3.931602,1
7.163655,195.299852,22342.286392,7.245345,333.607835,416.678638,14.27625,66.152602,4.000695,1
6.257086,180.406211,13826.257914,7.075131,346.627467,422.600375,11.838106,77.838212,3.994714,0
7.016913,194.719826,22569.609437,7.182037,331.550817,420.607562,14.115712,67.942231,3.956706,1
7.056219,196.691946,22012.589089,7.240918,329.600159,424.475906,14.555033,66.096737,3.963879,1
8.458797,241.76834,29317.14244,5.783275,313.885548,328.579429,18.296001,84.510985,3.827431,1
7.155217,194.314882,22411.018387,7.320833,331.332144,432.796385,14.296983,65.733057,3.955121,1
7.170001,198.040611,22417.907946,7.226045,328.877278,425.852197,14.48776,67.41988,3.914731,1
7.057125,195.541207,22421.136,7.317161,331.139681,420.041472,14.077862,66.087554,4.042918,1
6.946245,196.84932,21234.203917,7.000993,331.887326,420.648702,14.482261,67.374504,3.988693,1
7.024817,195.090191,22433.361093,7.139476,330.175304,428.952138,14.21794,66.114227,3.960135,1
5.058109,238.56938,34873.934523,8.983276,374.433505,669.725086,13.353181,76.5218,5.106656,0
7.192276,198.838095,22490.624817,7.157774,333.230498,429.997144,14.012276,65.683438,3.988416,1
7.02229,194.414306,22643.716143,7.343432,331.249468,421.811162,14.273123,67.945184,4.017436,1
7.290564,198.417559,22537.916295,7.02443,334.317039,425.645818,14.50545,67.576531,3.900023,1
6.509622,197.759503,20122.192564,6.862782,353.011974,472.709381,11.058818,64.663309,3.80282,1
6.002415,196.002938,16136.433269,5.687755,301.980938,336.914157,11.988324,43.912634,4.315308,1
7.138637,195.16458,22313.293584,7.166144,334.649469,425.232076,14.513907,67.103433,4.024797,1
7.17825,195.582037,22028.06268,7.154318,332.079419,426.6343,14.365628,67.271437,3.96804,1
7.169854,195.078229,22403.389965,7.099941,330.079935,429.046401,14.653406,65.64922,3.92451,0
7.173389,197.189841,22163.971327,7.080158,331.243396,427.934785,14.544064,66.637182,4.000879,1
7.062525,194.705902,21726.492606,7.032016,335.776396,424.628524,14.545456,66.304298,3.944087,0
7.1482,192.942338,21824.197943,7.169039,333.916956,432.380128,14.197513,66.593208,3.994207,1
7.209491,196.286249,21970.458409,7.122018,335.608284,424.248117,14.251203,65.981743,3.982608,0
7.033017,194.064144,21144.680103,7.138222,330.640678,426.955435,14.302258,66.750515,3.913209,0
7.168058,197.034696,21736.897299,7.082711,332.59604,430.924148,14.690883,67.203484,3.940163,0
7.095406,196.187469,22545.501421,7.415998,333.864688,427.505185,14.404171,66.82831,3.956118,1
6.985622,197.673151,22121.50252,7.190818,330.828405,429.061741,14.163466,67.522311,4.004495,1
7.259131,196.382043,22513.430839,7.185908,330.905001,421.16607,14.102279,68.155074,4.022826,1
7.118097,197.470049,21735.525676,6.99881,334.372365,417.734974,14.330094,66.593782,4.033357,0
6.971706,197.198484,21816.162022,7.072131,334.954052,430.303355,14.13502,67.275858,3.929182,0
7.070446,198.093099,21776.256785,7.223544,332.375837,430.014825,14.336422,66.120399,3.891863,0
7.175623,192.006608,21761.889875,6.986683,333.008447,422.379656,14.691113,67.495942,3.911081,0
6.715941,218.062384,17180.188184,8.915971,393.275772,349.00307,14.354595,57.247082,2.404729,1
6.937425,196.283331,22038.103284,7.226689,332.709545,422.953936,14.286751,67.594395,3.984268,1
6.641174,191.916899,10220.712359,6.675081,380.36359,421.417352,12.243252,65.179927,3.154701,1
7.288737,233.97781,31617.075415,8.533888,331.838167,490.047095,12.225342,31.802024,3.531385,1
7.193712,196.669195,22052.377228,7.090382,334.660147,426.748177,14.686462,67.333327,3.964048,0
7.150186,195.859866,21720.950706,7.179519,334.806381,428.957411,14.343705,66.334085,3.965513,0
7.17004,196.115132,22097.552318,7.089932,332.400353,428.848519,14.597858,66.051058,3.996772,0
6.486153,224.809456,26807.119512,3.267984,319.074358,382.879844,10.66503,63.727693,3.246794,1
7.124186,193.175388,22410.11342,7.096923,328.685663,430.882344,14.178204,66.09095,4.027943,1
7.13093,194.811915,21529.815963,7.003725,336.73367,430.287902,14.471133,66.631497,3.978315,0
7.025922,192.405078,22194.600258,7.091401,329.337798,422.081229,14.152246,65.727303,4.019424,1
7.195685,196.011369,22387.234452,7.167403,329.778753,419.042346,14.160026,66.931793,3.980237,1
7.377037,175.008276,15340.951839,6.144845,371.010524,579.461824,11.91574,78.179171,4.531659,0
8.016279,211.029304,14034.485799,9.797,389.338796,491.079082,14.512991,35.565966,4.308223,1
7.152381,192.792202,22510.822008,7.088331,333.873437,430.151985,14.388428,67.484834,4.006084,0
6.442496,183.071355,11592.445624,8.960736,408.24267,385.014867,16.148258,83.332516,2.891019,1
7.055685,198.292259,22035.486158,7.016411,334.763516,430.526121,14.53496,65.903607,3.851815,0
7.0432,199.52201,23126.892399,7.2031,329.291954,432.17747,14.518472,64.909607,3.962347,1
9.024845,128.096691,19859.676476,8.016423,300.150377,451.143481,14.770863,73.778026,3.985251,1
7.16604,196.540403,22477.620017,7.177684,329.334757,428.677424,14.381436,65.826856,4.053597,1
7.127609,196.483768,21495.355407,7.066688,332.741387,424.574753,14.446668,65.157634,3.909631,0
7.087809,197.906983,22369.435072,7.230521,330.506434,424.986898,14.341003,66.757196,4.004627,1
7.047012,196.360938,21710.157499,7.327208,336.661994,424.570287,14.228353,66.279221,3.967153,1
7.026443,196.10262,21026.395201,7.145282,334.853543,427.175513,14.320296,65.939508,3.910402,0
7.091719,198.790511,22755.595815,7.105865,331.119749,429.463572,14.505451,66.327758,4.010371,1
6.942508,196.713176,20412.704403,7.126861,332.840497,423.32126,14.411636,65.739165,3.929608,0
2.925174,260.458041,39233.098839,7.670149,303.402078,403.243735,11.30921,69.238445,3.678588,0
7.018351,194.195527,21790.565891,7.181984,333.945882,422.412921,14.697002,65.598905,3.982305,0
7.005818,195.18518,21497.720771,7.138388,332.950262,418.800309,14.092957,65.09956,3.933867,0
7.00321,196.341173,21540.425584,6.988646,329.381954,427.650055,14.398863,65.472075,3.972299,0
7.108401,197.733382,21958.699904,7.119344,328.953725,419.781355,14.301325,65.944958,3.937988,1
7.169571,194.639327,22667.537564,7.324461,331.496609,421.537995,14.357168,67.236472,3.968786,1
7.156891,196.668347,21751.808176,6.951707,332.095284,434.061454,14.385802,64.362534,3.933243,0
5.191834,211.094185,14866.103863,7.238691,323.109285,388.71658,17.78,83.505406,3.859801,1
5.095766,273.408448,26307.298455,10.219804,380.201498,513.877579,18.272418,61.425187,4.352193,0
6.949562,197.563514,22055.9823,7.012812,335.418855,429.991271,14.537669,67.797955,3.859442,0
6.973329,195.149113,22233.554453,7.061344,337.847063,426.113964,14.252445,67.000743,3.92107,0
7.096232,194.599966,21273.104428,7.02115,334.561252,420.55934,14.508223,66.673494,3.972289,0
7.168946,197.142545,22461.516491,7.087988,334.443314,431.910125,14.19025,66.087915,3.992399,1
7.129533,194.451658,23463.836681,7.298118,329.983915,422.553061,14.2902,65.685618,3.971202,1
7.127763,196.759207,21743.462716,7.299872,330.296102,423.918023,14.391497,66.756935,3.931967,1
7.199251,194.609972,22014.342857,7.306786,332.24741,428.249078,14.38757,66.292608,3.97832,1
7.090378,194.414217,21807.327305,7.112446,332.599898,426.409588,14.613874,65.710928,4.012265,0
8.63127,164.371169,14880.651798,7.278263,350.951581,444.108112,16.857459,58.177867,3.640944,0
7.070493,195.75467,20966.105046,6.998689,338.401093,424.769976,14.379587,65.373571,3.910374,0
7.204863,193.310651,22139.785599,7.182863,336.046226,426.076105,14.437819,67.423223,3.961469,0
7.008598,192.077446,21454.86223,7.149581,334.986397,422.698172,14.47864,65.590483,3.962495,0
7.03604,196.190767,22906.144721,7.211924,329.607496,422.280663,14.365922,67.295513,4.040637,1
7.028281,197.186776,22005.598648,7.077457,337.395353,430.183299,14.384613,64.44147,4.002419,0
7.24876,198.623794,22353.492049,7.077496,332.446281,418.742501,14.545787,66.581866,4.015656,1
7.116657,195.049841,22298.904444,7.13709,335.975637,420.917062,14.695592,66.453955,3.938929,1
7.07521,195.686697,23030.185056,7.292822,334.310875,420.473134,14.272646,65.975011,3.938999,1
7.00779,197.564785,21363.456595,7.087649,333.110815,428.735486,14.295651,66.808284,3.928337,0
7.108826,195.958014,22228.110826,7.100663,329.634132,431.491454,14.298182,66.70674,3.911269,0
6.930762,193.923231,21891.266825,6.975542,331.124106,431.11418,14.043641,66.402107,3.967485,0
7.144017,194.886058,22356.169056,7.115031,334.229489,428.156336,14.306045,67.422958,3.954401,1
7.137418,197.573174,21233.389197,7.003484,334.756818,431.464258,14.443065,66.788893,3.994207,0
7.148309,195.494143,21575.084113,7.035046,334.133953,429.284846,14.289453,65.785906,4.003129,0
7.369912,155.644805,19283.402051,5.435025,399.940784,391.324215,18.148562,63.698617,3.821721,0
6.968852,192.827649,22654.31395,7.066302,332.077349,430.46119,14.260282,66.362274,4.01135,1
7.012645,195.96795,22546.440232,7.161099,334.04042,433.913163,14.533047,66.044689,3.89385,0
6.946722,193.161887,21833.353735,7.085039,333.473401,432.558573,14.284584,66.492215,3.986255,0
7.506111,188.221812,31920.584694,5.714312,334.243304,436.396995,15.220967,43.360494,4.744007,0
7.18232,197.814956,21383.533111,7.049011,335.196997,427.676341,14.294315,67.047755,3.932373,0
5.094164,223.167125,22957.653403,6.977421,350.101275,476.62455,13.034638,78.075923,4.710936,1
7.091082,199.760419,23353.223087,7.298604,333.24072,421.188414,14.436107,66.433063,3.946997,1
7.215959,193.449183,22151.583438,7.005548,332.283694,428.791042,14.149288,67.282153,3.973406,1
6.98631,195.59678,21739.561245,7.096412,334.276436,423.803226,14.082973,66.513348,3.980231,0
7.076463,195.194884,22189.493427,7.245649,329.04017,428.018181,14.329496,66.690971,4.034959,1
7.06418,197.828377,22272.52055,7.174772,332.355492,424.615687,14.401798,66.842733,3.975025,1
5.386307,212.592991,40149.316557,8.124232,318.791667,355.54642,17.348802,64.210905,3.662563,0
6.958434,193.726402,21561.585977,7.09575,330.98082,427.789917,14.434553,66.549798,4.004504,0
7.464485,227.000019,26559.360897,5.657812,300.690651,332.068825,16.052838,28.682952,3.880576,1
6.997781,197.090863,22197.524519,7.058054,330.398802,429.582739,14.245051,66.206625,3.966657,0
7.07014,196.679752,21254.939133,7.104077,335.088572,425.510141,14.493801,67.065601,3.960393,0
9.879071,208.905645,14673.670669,6.240248,366.817639,442.337486,19.626022,66.816581,4.218831,0
7.149888,195.425057,22470.671966,7.084863,333.371375,420.090921,14.528681,66.99675,3.953114,1
6.897923,173.390928,16616.516617,6.352934,329.339768,337.436088,12.446976,60.159413,4.490105,1
6.755146,231.260131,18536.698647,8.757133,342.548014,385.114648,13.888834,79.302436,5.16273,0
7.017392,193.623189,22695.281138,7.204191,329.65318,424.00926,14.341877,66.195466,3.95958,1
6.97163,195.582023,22872.459902,7.250843,338.73394,429.403307,14.394628,66.958086,3.944564,1
7.063385,196.395867,21719.011883,6.987564,330.723697,429.181884,14.226839,66.323059,3.890237,0
7.224416,196.505552,22915.58818,7.27153,328.756946,422.961471,14.373905,65.586723,3.971851,1
7.218497,194.836912,22395.197006,7.213205,334.159909,425.77391,14.268655,67.364555,4.051139,1
7.242585,195.743136,21992.342393,7.31572,330.59884,424.228127,14.385835,66.925225,4.08434,1
7.174366,199.441462,21973.505225,7.126285,328.924678,422.448614,14.307011,66.633956,4.060258,1
7.114506,195.92563,22524.760942,7.177791,331.866326,428.946446,14.313215,66.54035,3.950849,1
7.066801,195.646854,22663.343173,7.137762,332.420522,426.55148,14.28063,65.957209,3.993321,1
7.172936,201.097507,22348.771642,7.089435,331.812206,424.120466,14.187332,66.833535,3.924985,1
7.035126,194.282196,22113.554368,7.223665,330.74389,426.860909,14.494499,66.421372,3.97901,1
6.975503,196.346878,21503.689768,7.079033,333.457467,423.94274,14.550598,66.182437,3.937091,0
7.057391,195.989048,21760.553538,7.222156,328.178867,430.071648,14.628355,69.274032,4.01516,1
6.903355,197.003693,21604.678165,7.12839,332.340362,425.933259,14.326345,66.780152,3.941124,0
7.147186,193.25595,22499.365745,7.302087,328.533735,426.988568,14.003543,68.345413,3.949726,1
6.510972,188.882919,20081.745362,6.559698,368.985739,367.934555,14.807579,101.248253,3.962525,0
7.050956,198.183102,22120.7477,7.263912,331.948828,420.818688,14.324749,66.51513,4.001965,1
6.906992,216.785291,19991.239149,7.302352,340.106028,356.459137,9.614106,61.122644,2.124759,0
7.216973,194.131436,21823.045417,6.995722,333.224628,431.30488,14.416523,67.54241,3.956798,0
6.988863,193.587975,22305.141479,7.148928,331.895864,426.478986,14.237724,66.616805,3.980817,1
7.176788,196.353056,22662.807947,7.174836,332.147596,425.004639,14.342568,66.582085,4.005035,1
7.111319,196.087031,22257.380819,7.214784,333.495105,425.320234,14.281872,66.86805,3.962885,1
7.057923,194.468128,21978.677854,7.126401,331.78915,425.748075,14.338989,68.352474,4.029707,1
6.973669,196.046825,21621.490038,7.043216,333.433006,422.809896,14.184338,66.029023,3.890142,0
7.05645,197.198902,21399.157006,7.10038,333.165177,430.010099,14.477506,66.30237,3.96165,0
5.422446,205.26608,18542.957451,5.491963,306.702227,382.080129,10.504023,67.49345,2.911751,1
7.024661,194.808541,21263.315239,7.092342,334.338805,433.386502,14.366846,65.991003,4.004692,0
6.284386,222.688795,18526.261691,8.980271,395.261637,517.150548,15.86901,55.384333,5.030712,1
10.041028,113.831112,16266.434445,7.939074,363.86689,557.486061,13.195341,75.233221,3.807563,1
7.086122,196.542815,22454.221918,7.250016,332.199698,418.39868,14.159785,66.365253,3.98413,1
7.036747,194.184892,21394.319956,7.022493,334.531436,432.483247,14.460359,66.006814,3.950378,0
7.201757,196.829289,21869.250437,7.174551,335.654033,428.712479,14.295815,66.611784,3.979236,0
7.13331,195.373364,21841.470332,7.150542,331.271586,427.512616,14.396245,65.553779,3.957042,1
7.084864,197.729051,22133.977153,7.120138,334.539888,423.651026,14.010196,67.239925,3.932769,1
5.382489,240.018214,18189.39498,5.55199,397.700065,551.476202,12.81873,79.779911,4.17333,1
7.102144,198.90694,22437.080823,7.134165,335.179462,430.068516,14.301189,66.404928,4.043439,1
6.475885,177.294949,16532.828822,10.096588,305.248945,466.64942,6.776146,65.14649,4.306113,0
6.973233,194.523436,22377.141597,7.20973,330.416525,426.458508,14.095522,65.277633,3.930805,1
7.080015,195.166625,21103.614818,7.067188,335.330397,422.503096,14.12421,66.299257,3.932424,0
7.062303,193.328566,21739.771991,7.183988,331.614872,420.318284,14.580563,65.907211,3.97106,0
9.058628,155.357557,15737.468938,7.251979,343.233977,463.389256,17.85447,83.175189,3.652134,1
7.054483,197.677914,21471.446161,7.071894,335.134595,426.570997,14.338924,66.880219,3.921027,0
7.088669,196.352116,22802.040548,7.22261,331.849539,428.237993,14.253204,67.204973,3.977488,1
7.092366,195.592919,21133.48556,7.113238,337.751182,424.996359,14.634056,67.636812,3.924783,0
7.015285,200.709475,22882.285144,7.196211,335.707371,425.513404,14.403686,66.733012,3.978638,1
7.123249,196.478415,21938.274607,7.2891,333.006036,432.667078,14.442049,66.884128,3.986392,0
7.234289,194.671884,22498.176308,7.107668,331.589976,428.498356,14.212038,67.201569,3.966021,1
7.025153,196.723216,22489.766811,7.214347,330.42105,417.772561,14.367114,66.278929,3.963795,1
7.030799,201.249025,21013.271126,7.063486,334.978406,428.271458,14.488466,66.001608,3.923891,0
7.059464,194.141346,21085.863036,7.090422,334.892894,426.054628,14.403797,65.585544,4.004317,0
7.061861,196.253899,21618.09648,7.105315,335.448689,426.953842,14.525744,65.352542,3.965948,0
7.104005,196.903497,21954.71491,7.129424,327.976111,429.621901,14.028171,66.014472,3.99858,1
7.657991,236.960889,14245.789121,6.289065,373.165363,416.624189,10.464239,85.852769,2.437296,1
7.092692,199.65071,21348.26824,7.126281,334.908807,430.378551,14.571179,66.870747,3.927423,0
7.223163,194.582938,21837.709998,7.133241,334.320546,420.554557,14.307483,66.567972,3.929085,0
7.072945,195.519362,21906.381028,7.097741,329.542426,423.532154,14.52586,67.078959,3.914683,0
7.066923,193.658536,22158.675403,7.161507,336.727745,421.15449,14.299827,67.128086,3.954984,1
7.233795,193.777445,21957.727997,7.105692,335.365246,415.085285,14.20421,67.233092,3.988489,0
7.069424,196.137197,22431.747439,7.244236,329.925611,420.674106,13.958423,65.75064,4.037052,1
7.086168,189.145378,4304.492483,3.615891,259.373322,400.90435,12.993012,63.902288,3.41654,0
4.563371,152.907561,13490.608148,7.499917,338.584921,524.108024,14.143989,69.01624,4.825179,0
7.025184,194.510669,23180.028473,7.170441,334.057338,426.963388,14.425159,68.209693,3.925949,1
7.196458,196.180669,22304.722206,7.176665,331.97618,420.231002,14.421589,66.840897,4.036655,1
6.930933,196.583592,21175.046829,7.177119,334.415105,422.24951,14.454545,66.129467,3.908503,0
7.281692,197.200683,21881.049456,7.133128,332.47983,419.693424,14.284435,67.380735,3.960714,1
7.025296,194.712239,21821.645127,7.044276,331.972388,426.975872,14.485131,66.242868,3.949455,0
7.172067,196.883043,21627.049289,7.115648,337.569444,428.091811,14.447537,65.084283,3.963537,0
6.953864,209.638293,10575.186281,4.462707,315.606594,391.184315,13.285334,87.390889,3.19571,0
7.739326,207.764326,30412.372331,7.813967,289.413636,273.697139,19.113382,52.281104,3.645785,0
7.098071,195.231491,22355.724355,7.344048,334.229795,424.637491,14.478525,67.91566,3.979258,1
6.838432,195.537388,22008.723515,6.978788,332.815332,428.366977,14.673387,67.288252,3.984807,0
7.066676,195.297443,22096.203106,7.234237,330.132106,428.150552,14.167616,65.762711,3.927285,1
6.98484,195.21504,21620.817259,7.139318,332.743825,425.812535,14.333878,65.935591,3.922007,0
9.537879,200.557507,20044.206252,7.07869,303.919341,335.554803,16.636174,71.309022,3.024557,0
7.047074,193.965562,21894.961157,6.958607,335.914621,431.514104,14.089772,66.174593,3.902785,0
6.733494,197.562665,27430.441731,6.035087,303.93767,397.684986,19.394027,54.510725,3.178004,0
8.040392,200.637576,12999.144804,6.696356,356.870041,394.017732,11.100407,43.62591,3.017796,0
7.135431,197.810705,21947.573023,7.154209,334.830467,425.183036,14.248919,67.406416,3.987654,1
7.05389,196.49633,22009.653316,6.999924,332.357827,426.174474,14.452615,66.662026,4.060368,0
7.227185,197.30005,22774.854535,7.197346,330.953619,425.155222,14.037967,66.888353,3.999714,1
7.205559,120.327615,24627.86756,6.202469,289.768697,418.43329,13.643147,63.733732,3.710053,0
6.928824,194.598572,21288.075149,7.120975,334.970975,421.718006,14.33878,66.619162,3.954282,0
7.145352,196.682496,21362.186169,7.086795,331.488914,429.007631,14.343618,66.105474,3.963409,0
7.006158,196.483439,22398.296522,7.02526,331.006199,427.932155,14.38456,66.397567,3.961036,0
7.130615,196.35794,21469.757679,7.228972,331.405974,426.538128,14.41909,66.431548,3.969548,0
7.070067,194.61678,22299.083229,7.161096,330.322362,419.96174,14.641015,65.084008,4.001168,1
7.273368,175.015083,14206.357323,7.839067,337.644573,322.490689,18.107842,58.181707,4.196421,1
5.484151,196.791251,19378.359067,5.003731,295.591019,348.399033,18.713876,76.414153,4.438858,1
6.449379,275.746716,8607.61251,7.70163,272.197565,384.380669,16.078305,54.404461,3.715429,0
7.188465,198.561643,22205.915784,7.136741,332.170616,424.103332,14.123238,66.59568,4.009241,1
7.124283,196.352868,21294.695264,7.26286,333.567755,424.186085,14.803917,66.848624,3.986222,0
7.123413,195.707158,22262.740351,7.238769,330.40459,414.565144,14.318904,66.58499,3.979533,1
7.032372,196.709326,21435.178494,7.210791,332.810692,426.963989,14.254669,67.255569,3.968568,0
5.87244,185.403976,14343.423207,9.690213,333.564587,409.113512,14.74124,64.183725,3.741067,0
5.608745,152.954062,19835.98077,9.345981,323.39334,596.076368,14.380725,49.428252,4.644212,0
7.008382,196.268386,20928.086571,7.068643,336.593048,427.276942,14.436619,63.804915,3.92178,0
7.37129,180.736526,25672.311996,7.377422,310.567467,298.053057,12.671607,27.559355,4.084697,0
7.091613,194.564544,21757.745958,6.958731,332.712478,431.321089,14.539001,66.243074,3.968183,0
6.993534,195.584325,21671.316149,6.955909,334.95305,423.179926,14.536483,66.741641,3.967001,0
6.952441,195.336667,22744.433253,7.003429,331.770593,426.770225,14.193382,67.310054,3.994737,1
7.059723,197.701875,21975.570476,7.036447,330.729766,420.825049,14.253273,67.221968,3.973026,0
7.047866,196.608617,23035.592854,7.251779,333.641018,426.099521,14.2198,67.429515,3.936027,1
7.103628,197.398749,22109.187701,7.312492,334.263882,429.484205,14.316618,66.932008,4.018145,1
5.892413,139.362253,11006.048507,5.31199,339.327905,446.494394,10.567071,89.692883,3.311813,1
7.178315,195.32666,23108.183518,7.275553,336.241984,417.279838,14.4162,67.456625,3.982373,1
7.272362,229.087141,16404.759485,7.589754,272.276912,518.60948,17.878956,67.104417,3.996581,0
7.319153,195.08971,20602.565411,6.99043,331.967661,429.303883,14.264618,66.287883,3.939648,0
7.187929,194.1317,21175.902499,6.88241,336.272065,425.251606,14.351221,65.485039,4.009082,0
7.113182,197.848098,22357.996937,7.245251,331.630503,424.885192,14.035028,67.157684,3.956419,1
8.310939,245.71961,7929.504749,8.83239,373.463544,348.618543,14.105872,84.740568,4.40856,0
6.914982,193.661848,20808.855099,6.982883,334.60682,434.954029,14.469993,66.545143,3.913023,0
7.442536,180.859091,18223.02708,8.57725,405.320016,564.793485,14.768337,57.757554,2.191138,1
7.01067,199.892203,21420.941068,7.161278,334.254567,427.27097,14.604454,66.286343,4.010934,0
7.194048,194.324753,21724.202395,7.161142,331.432126,426.681658,14.313875,67.92233,3.891773,0
7.118654,194.702518,21158.105647,7.044657,331.884773,423.271179,14.396428,66.481222,3.950454,0
7.152539,195.86076,21641.627808,7.024886,331.079739,429.764522,14.253133,65.712539,3.928243,0
7.076085,195.838008,22932.796285,7.276076,335.74205,423.62222,14.473321,67.521462,3.955406,1
1.985383,216.480025,23039.328505,6.769268,344.014256,341.078379,11.498237,78.733441,3.923093,0
7.176105,195.541708,22146.01146,7.094381,330.365226,427.693785,14.242758,66.017432,3.952121,1
7.118498,193.27437,21924.06268,7.14389,335.389679,425.213705,14.604134,66.326319,4.006776,0
7.774468,216.752872,22316.398284,7.947534,385.043438,288.068578,14.136699,68.861861,3.891097,1
7.010324,196.103206,20609.424786,7.062718,335.438421,433.491087,14.446728,65.978322,3.950404,0
6.99455,195.346178,22131.133234,7.237253,331.165256,421.379728,14.47391,66.734408,3.926046,1
4.233559,194.975044,22185.763963,7.116809,377.846903,355.817097,14.859198,62.016383,3.515672,0
7.120616,198.864658,22217.294852,7.045293,333.375202,431.743029,14.458722,67.441054,4.056308,1
7.076922,195.404123,21979.687367,7.148054,335.234608,427.935338,14.342727,66.651659,4.038577,1
8.933878,278.231754,14179.622741,8.128262,318.356502,335.240511,16.6649,48.357257,4.374797,0
6.998179,195.536163,21946.271737,7.252625,333.393478,421.855588,14.357787,66.023703,3.950635,0
7.060323,193.994306,22730.580871,7.328833,330.903739,429.443496,14.066314,66.809822,4.02712,1
7.065324,196.926113,21717.988679,7.112471,334.955115,422.937895,14.425011,65.884165,3.97435,0
7.128497,197.250766,22136.777869,7.11659,332.86401,419.065922,14.538507,66.373542,4.04178,1
7.052631,197.774792,21140.698461,7.050686,334.261738,427.020537,14.300752,66.547454,3.892819,0
7.012467,197.060704,22154.770146,7.117932,335.897043,432.025735,14.298345,65.088734,3.922511,0
7.222876,195.956904,21696.825223,7.141626,335.798676,427.620228,14.48872,65.536259,3.932303,0
5.827541,191.00493,25863.343245,4.823832,316.025513,370.357288,18.361858,48.658109,3.179129,1
6.945703,194.268706,21402.922929,6.952277,333.648139,427.249479,14.386845,65.765277,3.884301,0
7.081772,196.889741,22434.204537,7.13908,337.946765,422.478875,14.384215,66.691428,4.039934,1
7.12961,196.092578,22139.977333,7.076503,331.231955,421.269769,14.18818,65.727461,4.03411,1
4.850104,186.676176,32808.307503,7.496263,293.757927,392.700493,10.630769,85.157983,3.885386,0
8.829806,216.122144,17732.91467,7.856312,377.253834,301.895959,16.210713,64.409359,4.423886,0
7.030132,196.215972,22079.641841,7.139898,335.786629,420.097371,14.249289,65.842225,3.936842,0
9.842056,217.896772,6785.145303,6.028898,333.073546,432.332406,12.365538,45.822004,4.179198,0
7.137525,197.154836,21578.231477,6.930128,332.575766,425.490972,14.316648,65.957806,3.978398,0
6.974173,193.709539,22195.354065,7.308632,336.328218,426.582373,14.144216,65.010396,3.958392,0
7.080328,198.782811,22245.437596,7.071061,336.140646,423.499382,14.057143,65.770148,3.95479,0
6.956677,196.789129,21816.88631,6.979112,336.03529,425.603084,14.502469,66.615687,3.989801,0
7.062257,196.072739,22540.817303,7.13983,328.728753,421.18775,14.451315,64.761408,3.978733,1
7.061363,193.552319,21762.074019,7.249629,329.104149,425.89985,14.231874,67.196742,3.973518,1
7.11391,197.790366,21425.955486,7.158493,337.51427,423.486503,14.231035,67.809266,3.95904,0
7.093437,196.526755,21849.259027,7.144316,335.395076,430.209581,14.222321,66.852657,3.981507,1
7.093556,194.460422,21509.945879,7.055136,331.332089,425.21051,14.443294,66.076472,3.944187,0
7.08092,199.744142,20987.932755,7.11875,333.473333,423.307828,14.318709,67.072326,3.995906,1
7.560392,223.23225,14739.06854,6.731611,372.028909,481.341774,8.900409,62.134281,4.257805,1
7.265214,194.231594,22337.652813,7.208013,332.215951,432.92453,14.604216,67.033288,3.930031,0
7.083178,196.949614,22456.498779,7.271293,334.510517,423.40774,14.345098,67.650307,4.062122,1
7.220736,196.764126,21714.76361,7.06597,331.670625,435.036892,14.39062,67.4413,3.994815,0
6.902312,199.697111,21314.814729,7.031069,333.108224,434.954104,14.508983,66.418669,3.981674,0
7.935607,207.016852,19657.843315,8.604505,312.343607,358.849003,21.228127,63.771833,3.619651,1
7.086501,200.287045,22597.666261,7.104974,328.435855,431.80618,14.266463,67.142962,4.090544,1
7.206631,196.585677,22249.360743,7.358516,330.182576,425.269289,14.530895,67.264306,3.940965,1
7.176784,196.600702,20795.757611,7.248136,336.226537,428.676084,14.393791,67.228883,3.985646,0
8.654793,218.17266,14799.311464,6.164049,366.147992,416.870333,8.95452,72.62028,5.148138,0
7.099808,199.588972,22074.992201,7.045989,329.781167,417.594914,14.159876,66.883639,4.000296,1
7.154936,196.735902,21860.283022,7.102753,334.634128,419.228982,14.135281,66.894725,3.893012,0
7.128318,197.301525,22536.647233,7.15331,333.841932,426.767048,14.519642,65.67428,4.048072,1
7.108313,198.084746,22325.165224,7.117078,331.745578,428.832048,14.196325,66.528562,4.001699,1
7.182932,197.556036,22815.373474,7.162566,331.07508,427.163672,14.440004,67.310335,3.920759,1
5.632041,203.730481,19345.922475,8.047798,265.347111,708.226364,15.752252,69.195926,3.511985,0
7.125943,196.942462,21561.231537,7.023258,334.648213,427.438895,14.308124,65.129111,3.888011,0
8.107244,228.171859,18364.831418,6.185948,246.942611,369.903199,14.613423,101.351525,4.688271,1
7.179309,195.084039,21531.191267,7.204318,331.780533,424.578525,14.318002,66.456412,4.024166,1
7.024061,194.043121,22114.824483,7.065607,332.978637,431.982358,14.615886,66.852213,3.915474,0
7.101409,196.388629,21686.185998,7.305027,330.922879,422.614296,14.429448,66.731974,3.994833,1
7.215518,195.975287,21378.207368,7.081179,332.229952,431.281766,14.366801,65.939749,3.982753,0
7.169603,195.62864,21642.007328,7.136019,334.946415,427.405868,14.048846,65.663081,4.006803,1
6.908229,196.052395,21973.721968,7.060238,332.843704,420.380252,14.306261,66.605777,3.918862,0
6.538084,197.428199,15979.06027,7.424945,273.719282,452.187233,18.584959,77.730814,5.14375,0
7.437217,242.729969,20185.587156,6.121662,306.169251,413.655951,10.262778,64.529185,3.866875,0
7.144633,198.135252,21824.792931,7.087238,333.404029,432.65754,14.546958,67.370889,4.068047,1
7.126756,197.283125,22395.701677,7.155498,329.085366,428.652698,14.531391,66.665187,4.061786,1
7.095176,196.0368,20730.802474,7.097958,336.303001,428.321136,14.040781,65.293491,3.919746,0
7.217211,196.462853,21707.004672,7.151144,330.294763,424.196417,14.61708,66.009379,3.991939,0
7.188049,196.470203,21669.330827,7.071701,329.884949,431.576014,14.493002,66.422254,3.983092,0
7.685397,230.335708,7324.701425,7.991366,331.512533,492.850391,14.233952,74.068658,4.179187,0
7.056442,195.847365,21749.781611,7.131713,333.245307,424.052066,14.273198,66.213025,3.928732,0
7.134226,196.117507,22524.732167,7.224696,327.729814,423.558636,14.277558,68.227283,3.973405,1
10.282068,198.546363,8108.297322,5.548407,332.017935,568.07898,15.661692,28.770619,4.572923,0
7.003924,196.684884,21104.362381,7.13065,335.444236,427.744979,14.330823,65.006344,3.973715,0
6.848805,204.812711,20555.559572,9.775004,387.686388,389.638228,12.298753,49.452046,3.130045,0
7.049909,196.822548,22265.65658,7.17936,329.034447,418.010347,14.288689,64.952123,4.030563,1
7.08041,194.551614,22610.822698,7.221375,332.58525,426.948903,14.542806,66.531241,4.093649,1
9.252857,168.040751,50279.262429,5.905056,415.45081,400.003589,11.949854,62.256881,3.300586,0
6.984368,197.415595,21140.238323,7.003145,332.117177,427.180748,14.373359,67.169546,3.942604,0
7.069748,195.239766,22336.618062,7.20961,329.337197,426.170968,14.411921,65.404233,3.997673,1
7.105462,192.028633,22630.990693,7.111448,331.571041,427.736225,13.912048,66.242591,3.974353,1
6.987419,195.419918,22002.908455,7.05171,334.259029,427.557624,14.317392,67.535434,4.002045,0
7.18377,196.947894,22228.006613,7.156828,330.615257,430.16734,14.501422,65.979547,3.908803,1
7.09812,194.910722,21970.847312,7.186831,332.807524,424.754567,14.292446,68.039496,3.985159,1
6.574084,186.944211,22723.809959,6.212265,330.789695,385.018951,12.062534,72.595277,4.977324,0
7.042151,196.969771,20809.944472,7.051702,334.777315,433.942841,14.357309,65.644832,4.047689,0
7.012501,195.109017,21487.231517,7.161802,335.021139,428.361636,14.372333,66.240128,3.905517,0
5.456681,219.519886,20967.84061,6.826782,355.082878,312.01984,14.029285,57.852507,3.799473,1
6.94944,195.771976,21323.11667,7.118146,334.102847,430.547417,14.238219,66.329239,3.95159,0
7.138648,197.272569,22102.002759,7.129764,329.747716,430.374099,14.294629,66.381387,4.080036,1
7.031733,194.976098,22625.971209,7.068336,329.462323,421.807675,14.180516,66.596925,4.055864,1
7.235888,196.77457,22971.201,7.207888,333.955983,429.754091,14.033293,67.039717,3.984675,1
7.211697,196.102137,22772.553317,7.032194,337.408028,431.183795,14.20412,65.012564,4.022453,1
7.207438,194.676764,21812.72824,7.01902,329.849949,420.838864,14.281305,66.139326,3.94401,1
7.01453,197.846127,22836.951418,7.243187,332.403242,429.816048,14.271108,64.808554,3.987102,1
7.136088,196.290743,22150.491607,7.319141,328.183935,422.379798,14.309511,65.756484,4.00105,1
7.013499,193.354361,21179.192985,7.095442,332.603806,432.796642,14.763946,66.712977,3.994805,0
7.138434,198.191086,21967.526169,7.117571,329.827299,435.600893,14.553951,65.526973,3.953642,0
7.174735,196.058241,21637.627813,7.231048,328.305684,423.732466,14.537241,66.564123,3.955349,1
7.049546,198.335248,21654.670773,7.10319,335.823907,427.540908,14.331915,66.16254,4.04825,0
7.213141,193.873166,23442.238462,7.109009,334.112975,422.944617,14.050216,68.343763,3.952867,1
6.848332,159.18805,12837.506063,5.164448,373.991711,558.815567,12.254081,69.77221,4.396605,1
10.252734,217.736669,9651.874826,4.338353,369.297709,528.121626,18.661403,54.15045,3.290372,0
7.039944,196.944224,21541.903823,7.238165,331.651032,429.646596,14.365289,65.801097,3.866158,0
8.069298,191.004107,16654.50937,8.038213,350.57795,418.200072,12.29377,49.009256,3.021382,1
7.085484,196.706182,20456.01383,6.972425,333.177824,424.767872,14.180923,66.321555,3.911574,0
7.162254,200.799022,22342.443189,7.131496,329.780581,424.002969,14.523618,67.264572,3.98235,1
7.155913,197.590049,22103.605386,7.401398,335.073109,430.724008,14.247927,65.317577,3.937119,1
7.063427,192.89614,22619.676138,7.094306,334.90665,430.833368,14.307233,66.417071,3.958595,1
5.294195,234.271399,26811.203068,3.611358,369.608465,570.975027,12.775773,44.675683,3.522454,0
7.065286,193.979341,21775.77318,7.098031,332.983088,430.786908,14.004916,67.436461,3.993914,1
7.164353,197.556295,22565.44569,7.190882,329.176594,420.117883,14.064427,65.718172,3.9524,1
7.188471,195.301463,22578.479058,7.197222,334.714477,428.047656,14.341212,67.347315,4.014076,1
7.069767,199.508543,22558.372037,7.167764,335.143277,420.525947,14.198149,67.319448,4.114155,1
6.982733,195.672551,20997.258271,7.163626,332.645548,432.385455,14.24913,64.79656,3.975938,0
7.083978,195.262805,23034.236175,7.259355,329.981092,427.326023,14.27247,67.191324,3.960799,1
7.155471,194.088476,21385.840877,7.08103,331.071804,426.793774,14.238375,66.720273,4.063801,0
7.152592,196.810654,22204.625901,7.256257,332.3445,426.97892,14.175219,66.501757,3.962742,1
9.089421,208.91472,32238.077782,6.895014,321.080465,449.259976,12.514641,89.213074,4.430116,1
5.915944,274.263618,6967.735565,10.069435,247.645743,321.236814,12.092167,39.448593,2.585849,0
7.004175,197.019277,23037.583365,7.091544,333.93644,423.156538,14.007167,66.43181,4.078895,1
7.105315,198.400744,22698.806947,7.298514,331.060995,428.106166,14.412312,66.903914,4.046698,1
7.1098,192.661045,21817.950661,7.334934,330.39328,429.646654,14.241683,67.347862,4.018154,1
7.052525,196.077168,22163.426933,7.181493,329.653108,426.422711,14.029145,67.244538,4.023569,1
7.14152,196.593739,22786.770727,7.206523,334.403159,433.402949,13.735249,67.444599,4.002674,1
8.072612,210.26978,16843.363927,8.793459,359.516169,559.167574,17.263576,68.738989,5.082206,0
7.030051,193.049695,21664.80481,7.066038,333.535075,428.70957,14.731864,66.300817,3.915092,0
7.074945,194.72494,21453.184235,6.986569,333.910516,431.401145,14.475576,66.361976,4.000241,0
7.073881,193.67408,21377.879385,7.028394,335.285232,424.170772,14.5698,66.340517,3.933124,0
3.906568,152.818846,17857.716894,7.36306,324.382843,342.408791,7.637198,75.201346,3.204796,0
6.664003,199.588718,15902.945276,5.257789,346.584556,347.353336,15.989419,61.156575,2.227728,1
7.085729,197.350119,22016.786461,7.227217,332.473566,420.160511,14.482275,65.95668,3.977668,1
7.145869,195.92358,22907.079833,7.231811,331.121575,421.949446,14.195547,65.620622,4.04456,1
6.991019,195.69459,21736.810957,6.956228,333.164029,424.104044,14.330792,67.275017,3.824397,0
7.003106,195.017454,21479.832367,7.105172,335.231292,423.221656,14.13266,68.227683,3.994081,1
7.065585,196.261374,21598.661473,7.036066,335.034204,428.508169,14.290092,66.081515,4.001326,0
9.128358,184.682104,10418.108345,6.8502,388.068711,371.482308,10.444501,68.18402,3.762223,0
7.122445,195.844633,22413.876972,7.196734,329.81951,426.395608,14.336807,66.631136,4.039132,1
7.064087,196.612521,21655.761154,7.15631,332.076228,426.566862,14.71303,67.988789,3.927018,0
7.146126,195.478818,22158.464475,7.310851,332.653849,421.996456,14.61438,65.868676,3.952671,1
6.987672,196.958753,21350.478258,7.062774,336.843168,424.823012,14.786434,66.085963,3.875292,0
7.072528,196.603777,20648.321265,7.005066,334.965651,429.534444,14.394846,67.111787,4.025483,0
7.03995,195.830707,22012.700296,7.085807,327.386171,435.117114,14.493414,67.216414,3.987038,1
7.036256,195.980481,21766.701157,7.063639,333.380954,427.543777,14.322252,66.816064,3.978091,0
7.107339,195.908313,21357.195989,7.168317,334.340893,429.374898,14.076289,66.553107,3.960618,0
6.977631,194.000789,22113.16167,7.242422,333.798817,420.893244,14.672659,66.510598,3.994581,1
7.15169,196.983415,22886.123446,7.175682,332.258386,427.597877,14.284279,65.810234,3.919299,1
3.940125,163.171653,25911.32168,4.13854,371.96718,487.985185,17.751705,63.612403,3.478005,1
7.177867,196.96954,21868.694467,7.083294,331.271858,427.055163,14.210671,65.973326,3.988411,0
7.128062,191.400821,25227.545153,6.607844,319.250859,419.30498,12.865366,78.468491,4.510595,1
7.098787,196.052141,21675.111506,7.31571,335.191134,419.921649,14.374564,65.518633,3.970298,1
7.089673,194.689729,22162.122122,7.252572,331.221301,423.665395,14.347824,67.783751,4.014024,1
8.227083,274.351887,40546.956332,7.130161,241.446917,417.673702,9.809669,79.397105,3.619182,1
7.050166,194.201148,22372.832799,7.127016,330.671207,426.111026,14.316313,65.327679,3.976224,1
6.954584,198.204095,21601.14825,7.078537,333.350106,430.824028,14.475405,66.16943,3.973682,0
6.985528,193.614371,21824.781611,7.201127,330.786605,425.664824,14.058646,65.712237,3.966942,1
7.255052,196.593851,21675.62959,7.072199,334.581071,433.205981,14.426945,65.398854,3.982665,0
6.954925,197.449515,21842.401861,7.077736,334.949566,432.693646,14.545679,66.273851,3.936281,0
7.192767,196.537117,22446.473468,7.190462,329.333868,428.959071,14.503697,66.534387,3.992065,1
7.072669,199.02363,21869.333557,7.128743,332.563428,425.037468,14.730295,66.235192,3.971157,0
7.077682,191.873107,22861.164725,7.137276,332.542761,425.272263,14.149068,67.485329,3.936026,1
7.086775,194.817761,21318.642317,7.039324,332.325638,425.259837,14.390838,67.852697,3.926342,0
8.06061,208.042711,15489.32566,5.620299,361.970424,423.420838,15.37155,75.445589,3.600906,0
4.27516,229.443109,26098.637956,6.525203,281.896827,508.792098,16.133203,66.654193,3.732856,0
7.144948,195.935856,21535.771444,7.208712,328.841525,422.430475,14.288028,66.050009,3.972494,1
6.922652,185.818989,14682.665838,9.886831,341.066404,560.787703,22.466128,64.395422,2.877354,0
4.945695,170.440921,23000.723137,4.433725,340.64567,346.642267,13.276638,84.551081,3.782517,1
7.033608,197.509468,21591.306558,7.102491,333.785009,428.972052,14.334717,67.774193,3.959021,0
7.098246,207.535381,22671.479761,6.284582,295.585686,297.106494,17.105328,71.020825,4.909571,0
5.91693,185.925021,27977.673208,6.77461,329.619336,428.832746,20.638076,70.795496,3.15756,1
7.093824,195.644485,21230.533303,7.112779,331.487631,430.582621,14.561885,66.289766,3.966715,0
7.134078,196.932986,22347.266479,7.219063,334.225144,425.334968,14.166208,66.390102,3.966638,1
7.025376,198.419829,22196.097703,7.171017,333.800732,419.315623,14.439621,66.852255,3.915443,0
7.147746,193.008565,22021.382691,7.217493,334.953815,425.49507,14.604599,67.118961,3.978133,1
7.069347,197.702743,21601.047644,6.975826,335.425527,428.421149,14.490854,67.692172,3.908132,0
7.124149,198.380034,22236.59093,7.230773,325.64101,424.234578,14.499726,68.097554,3.903347,1
6.652824,187.946409,19155.727561,5.949622,345.358533,433.875209,20.523191,26.140863,3.661529,0
5.903466,201.864032,25394.10472,7.692154,313.648072,434.719747,18.006703,59.97216,4.587087,0
8.832142,176.808661,12171.024549,7.475336,321.257628,395.387337,12.481552,65.867189,3.914512,1
7.064074,195.685105,22262.439014,7.235748,328.699854,422.850138,14.360554,67.008289,3.973618,1
7.177192,197.864634,20778.369434,7.035306,337.056733,423.993494,14.429752,65.343563,3.938854,0
7.088941,206.364122,13839.713426,8.088242,321.296141,369.969333,14.896092,66.674658,5.661104,1
7.121018,192.760349,21637.283826,7.221209,333.635637,425.143662,14.424353,65.969831,4.03366,1
7.150442,194.323417,22195.15385,7.209186,330.998079,424.443593,14.539467,66.355763,3.952962,1
7.092739,196.026599,22286.354029,7.324179,329.784115,425.164655,14.18246,66.339137,4.027102,1
7.34703,199.613721,19073.259595,5.766832,336.994335,413.21423,12.482482,56.794084,4.297881,1
7.092074,195.108013,21958.394421,7.054227,334.582229,428.200645,14.370776,65.945052,4.002458,0
7.11174,193.842866,22198.897807,7.197815,328.395632,422.761072,14.238049,65.751816,3.958133,1
7.107677,197.475124,21055.041421,7.113328,334.562202,429.329843,14.343669,66.941819,3.886054,0
7.073954,194.335035,22430.478952,7.228886,330.451418,430.905404,14.472813,67.961625,4.000352,1
7.00043,195.565737,21978.677939,7.121305,330.619736,430.426681,14.14517,68.00847,3.963456,1
7.004237,196.22452,22296.770621,7.059587,334.005666,422.358961,14.339354,67.065973,4.009178,1
7.1766,196.44551,21941.493967,7.229883,334.837085,419.549516,14.349808,66.012045,4.063671,1
7.222895,198.696287,21937.057471,7.147864,335.104192,426.776615,14.367016,65.777903,3.923813,1
7.072789,194.786873,21503.169676,7.14953,334.937172,419.881698,14.305257,66.079865,3.979286,0
7.007747,196.392631,22122.691426,7.051197,332.182893,436.415436,14.279749,65.9414,3.989133,0
7.240187,194.317745,21755.575315,7.132644,331.582272,424.709137,14.597647,65.924155,3.917069,0
7.055801,198.532113,22195.5501,7.144699,337.875825,423.517891,14.255101,67.371869,4.022089,1
7.034104,193.000108,22059.547576,7.160312,331.581773,421.83168,14.348459,67.422902,3.999928,1
7.230768,192.934563,22643.790647,7.180197,327.569604,423.318556,14.289114,65.86512,3.987398,1
7.236463,200.18281,22353.266301,7.103263,334.891534,423.5866,14.662226,67.673257,3.975578,1
7.169568,196.259379,22361.500556,7.270981,334.096182,421.7931,14.054252,65.972891,4.00566,1
7.021833,195.144919,21585.605373,6.936768,331.388497,427.621862,14.365763,64.99491,3.971391,0
7.220635,197.690484,22154.214239,7.281003,336.399215,423.678449,14.279515,65.621486,4.034206,1
6.956856,194.764864,22044.902196,7.087654,333.25773,427.216748,14.659193,66.272913,4.018674,0
6.894514,196.9593,21477.915738,7.064024,331.225048,424.195776,14.373602,66.369126,3.903415,0
7.055348,197.890397,22923.36714,7.192931,331.57851,422.198497,14.064796,66.272431,3.939572,1
7.137483,195.094337,21090.281751,7.108973,332.621626,426.051662,14.256146,66.408809,3.928202,0
6.391354,213.01783,20965.478309,5.37556,327.650543,369.338121,13.758105,17.915723,3.923749,0
7.132542,194.012539,21692.70225,6.978345,334.06889,425.748157,14.215831,65.60186,3.947976,0
7.116492,193.341998,22622.375869,7.264421,336.35199,427.196384,14.263216,64.981785,4.028287,1
7.278911,135.259272,22184.527033,7.156541,357.909795,480.143109,11.316002,54.943992,4.201577,1
5.701101,170.496311,17121.505917,9.536011,374.775876,378.873855,10.97215,63.293296,5.956753,0
7.171224,199.160175,13163.031278,5.762522,351.278134,436.602436,19.103152,52.577451,2.209092,0
4.775222,231.998579,13978.17266,9.422101,389.219586,526.067651,17.207494,73.94097,3.223081,1
7.049884,196.882819,21904.313472,7.185703,336.343498,432.959593,14.556026,67.212105,3.935349,0
7.30534,196.212654,22123.399102,7.131182,333.741949,424.188933,14.258629,66.237803,3.987578,0
7.128396,196.574996,22599.323928,7.166789,328.922955,424.155948,14.318951,67.770403,3.964324,1
7.045923,196.324739,21601.941265,7.065782,334.93541,424.187933,14.4764,68.111803,3.942388,0
7.114545,199.405323,21834.695593,7.132069,336.649853,432.846615,14.131475,66.550864,3.958387,0
7.08738,194.356717,21781.409125,6.989949,332.551765,426.218414,14.28301,68.642604,3.997866,1
7.246051,194.473936,22637.963532,7.20737,332.399943,426.383071,14.163553,67.080313,3.962496,1
5.801571,201.892474,15327.879723,6.860647,328.932585,281.085032,19.812484,55.397564,4.425378,0
6.988732,194.993198,22467.05887,7.20339,331.668032,435.407031,14.256828,67.598506,4.026604,1
7.146192,193.068854,22391.443551,7.125065,331.332856,428.469864,14.296922,67.423611,3.94698,1
7.384049,148.296177,14417.979533,9.084968,347.962098,316.579588,13.493983,58.861502,5.337987,0
7.128142,193.888732,22146.647958,7.200835,331.347655,426.758252,14.138498,64.897725,4.033405,1
8.743959,197.749325,40843.616551,6.368862,310.6772,326.253326,12.503203,66.421884,4.118973,1
7.118181,196.135184,22933.469984,7.377172,330.157655,423.981198,14.283696,67.865407,3.948937,1
7.777665,233.761579,16780.116147,6.123297,323.538055,520.285094,17.794741,60.343891,4.683335,1
7.098398,196.075911,22117.52323,7.287956,333.011134,430.605687,14.444531,66.298915,3.958875,0
7.172477,196.91967,22415.84398,7.085362,337.719788,420.763015,14.345306,66.575496,3.984177,1
8.18441,166.636554,17944.852375,4.038955,331.954199,363.235756,12.535838,56.310592,4.599082,0
8.447404,163.949905,19583.057349,6.433184,334.655886,547.02383,18.238711,45.668318,5.218307,1
7.150651,198.408229,22430.745768,7.193088,332.35328,430.482754,14.157562,66.661647,4.042329,1
6.073685,140.926196,11795.31358,9.128422,437.647163,413.07582,14.93485,48.018966,5.24907,1
7.101859,197.481957,21373.969021,7.173128,336.745082,427.973099,14.551139,66.761095,3.942034,0
6.9964,198.574132,21306.533845,7.157225,333.250653,428.620289,14.389817,66.686699,3.926897,1
6.505066,226.419609,16982.131974,6.938467,318.24571,484.092285,18.527105,80.46281,2.890999,1
7.155234,194.074969,22438.829794,7.286562,332.115536,427.712738,14.288632,66.337459,3.894781,1
5.671762,184.781842,17527.716726,5.314759,339.05648,409.479378,15.196045,31.941831,3.268694,0
7.192028,197.074217,21445.981313,7.239112,331.131652,425.105912,14.14446,65.871707,3.993697,1
7.041734,194.698373,22752.592589,7.12494,332.068428,422.592318,14.03256,66.639002,3.958735,1
7.042268,195.093629,21279.57302,6.925082,333.629851,424.039795,14.215178,66.76571,3.917211,0
7.157398,196.551863,22329.558134,7.061896,331.344955,426.007752,14.388717,66.771801,4.017788,1
6.792125,165.794286,17782.604408,4.970601,307.752703,370.600578,15.138094,96.600542,4.042638,0
7.090072,196.113594,22306.207263,7.247243,329.257068,428.19819,14.385223,65.857041,4.019627,1
7.017293,195.670586,22429.686065,7.074873,331.580489,427.568872,14.571927,66.04674,4.000251,0
8.811472,270.209549,12138.422954,10.520555,360.295574,437.515421,15.95268,67.878497,5.587396,0
7.004978,195.963685,21948.84941,7.177325,332.120848,429.668754,13.982965,66.180696,4.020631,1
7.241496,196.860292,23355.268253,7.137831,331.658248,419.045313,13.968199,66.785386,4.018406,1
7.013891,196.298532,21511.286496,7.074242,332.351329,425.316779,14.40913,65.924411,3.99672,0
7.133629,199.040673,22385.547424,7.114475,331.906598,426.47714,14.39661,66.938311,4.021839,1
7.167685,196.097196,22298.084552,7.061598,331.96477,418.373739,14.129008,67.869024,3.997876,1
7.058183,187.947191,26608.929154,8.556396,405.403423,462.314567,18.428387,41.29033,3.613835,1
7.893313,220.34832,14444.289598,8.0374,300.152172,339.066071,18.423634,67.009098,4.09736,1
7.103851,196.906488,21051.44388,7.105389,333.130088,430.10633,14.333996,65.836923,3.910686,0
6.144759,210.979747,19981.315188,9.203614,271.097104,332.598126,17.187963,79.634242,3.08208,1
6.899714,196.636427,21178.078238,7.134772,332.831281,434.937694,14.374778,66.180352,3.945196,0
7.095465,194.550847,22688.626711,7.192191,334.890607,423.690515,14.193402,68.129553,4.014494,1
6.981245,194.289994,22110.111359,7.055615,331.897296,428.493938,14.474988,67.316268,3.997604,0
7.048148,199.51657,21259.388085,7.026215,334.555292,424.568756,14.223035,64.835643,3.972063,0
6.903635,194.626483,21122.611409,7.151219,335.197789,428.515412,14.36174,66.018733,3.945006,0
7.143055,193.333292,21835.189075,7.089728,334.797157,426.141261,14.438768,64.59983,4.038557,0
7.122673,194.287254,22335.000748,7.155088,334.586602,422.079876,14.416603,65.553418,3.905132,1
7.083169,197.132871,22275.158038,7.084221,328.059711,430.447708,14.593899,67.221668,4.027395,1
7.657542,230.820008,35056.232234,7.656807,364.130141,305.629409,18.481396,72.205075,4.792527,1
7.115118,194.362035,22664.344504,7.201197,331.873788,418.674744,14.135944,65.574945,3.925716,1
7.333478,233.721355,16066.552124,8.181988,224.212503,401.739309,15.313978,81.842062,4.772663,1
7.117918,216.116319,20067.572789,9.605651,349.084949,331.971661,17.53913,84.032858,4.213568,0
7.651294,200.717051,11699.13355,6.648273,349.255445,420.828362,18.863817,52.908851,3.258042,0
7.021623,194.261955,21240.9998,7.026356,332.494831,426.318265,14.442541,65.971564,3.939241,0
7.136573,194.109215,21705.455318,7.26377,333.913889,433.11023,14.411603,65.769447,4.035254,0
6.742622,209.217344,15488.956748,7.452362,351.052242,408.853562,13.921282,70.205241,4.964673,1
7.014131,193.941879,21747.77131,7.169264,332.700583,425.509822,14.765761,67.012308,3.867888,0
9.494243,274.828369,21879.704208,5.265718,364.682634,581.078156,13.636014,62.119643,3.189026,1
5.600877,183.573783,20411.664381,9.753766,336.404819,368.359984,11.095878,66.820124,4.362034,0
7.148729,195.995301,21143.540925,7.123005,333.714098,429.56749,14.289876,65.814596,4.009368,0
7.304308,195.085287,21289.406033,7.212151,334.073401,426.308941,14.707341,65.125851,4.012214,0
7.127994,195.485067,21866.944967,7.176664,329.094799,425.971502,14.603223,67.972228,3.966157,1
7.395451,190.477892,22561.508311,8.310195,294.030395,413.910293,13.301374,63.410178,4.990236,1
6.669532,190.751165,16246.173191,6.372975,324.341893,383.245825,7.852086,86.440561,1.964863,0
6.97645,195.431882,21582.897564,7.027853,331.59664,430.649189,14.274678,66.880143,3.952676,0
7.273178,195.912499,22946.463497,7.187425,331.062368,420.587072,14.291387,66.883691,3.899879,1
7.123672,195.405927,21865.289237,7.117772,332.237093,428.621995,14.292773,65.733715,4.011627,1
7.011179,196.151531,21232.342427,7.066273,335.393458,429.231357,14.148751,67.332911,4.023989,0
7.072553,193.680548,22932.214893,7.237718,335.794887,425.724,14.200878,66.651533,4.009138,1
7.102178,196.48462,21146.966988,7.160322,335.6825,428.24705,14.643118,65.453715,3.924856,0
6.450806,198.493156,19002.314664,7.306447,335.482194,257.007718,13.724087,52.860388,3.275581,1
6.984266,198.724382,21169.173553,7.048753,330.027279,428.175564,14.221486,67.12737,3.9382,0
7.290061,199.028302,22218.561558,7.150508,328.661428,426.883342,14.324726,65.64414,4.040881,1
6.973952,193.940618,22085.523755,6.981888,334.873367,431.203039,14.313441,66.616762,3.962619,0
7.197366,196.389497,22881.674181,7.16419,330.313187,428.34155,14.226073,65.494959,3.985872,1
7.111364,193.821266,22336.863278,7.17541,331.820689,430.486519,14.353915,67.732923,3.982297,1
7.149725,193.640596,21904.366912,7.004845,329.784793,427.883808,14.194851,67.87898,4.043315,1
7.117413,193.309933,21711.734029,7.050226,333.666261,418.10768,14.098671,66.513091,4.01273,0
7.087524,196.030398,23010.334934,7.177667,334.394965,423.582169,14.30929,67.560169,4.02205,1
7.124777,195.515005,21575.996172,7.000476,335.175214,425.287274,14.671317,64.351954,3.900397,0
7.074703,195.358015,21771.016765,7.032162,335.66143,427.740872,14.450958,65.905322,3.906329,0
7.087082,197.56434,21918.19326,7.228396,330.884167,420.32517,14.215286,67.227444,3.961947,1
7.089854,194.902381,21888.606497,7.144604,334.470981,426.672175,14.224052,66.79008,4.006019,0
7.040393,194.345113,21403.764986,7.108571,331.638842,426.836161,14.718646,65.631998,3.946371,0
8.837787,195.827213,11610.207949,7.870062,332.759029,514.925997,12.291616,87.429078,2.08708,1
6.999709,193.869123,23223.832496,7.101716,334.561317,420.046827,14.431377,64.991351,4.045921,1
7.039263,195.430875,21280.885353,7.242944,333.85404,420.765113,14.508913,67.700335,4.044503,1
7.02583,193.72902,21497.113932,7.317058,333.979327,417.908951,14.398806,67.128391,3.925474,1
7.123065,197.237442,21066.732568,7.098916,330.03185,428.790627,14.648572,65.981136,4.032187,0
7.101696,195.208887,21448.847387,7.220769,332.581196,437.315004,14.250025,65.404341,3.941782,0
7.046561,195.727958,22398.131783,7.284877,328.308779,427.646212,14.188639,66.938468,4.010243,1
7.145425,197.845085,22626.955626,7.174433,331.218227,422.513267,14.232242,67.684484,4.053539,1
7.67291,152.878305,22989.351184,6.231913,343.439017,401.140879,14.252684,64.291292,4.268227,1
6.952278,196.813023,21749.916172,7.166693,334.351532,425.462195,14.41587,65.135288,3.958891,0
7.061444,193.641125,20917.688333,6.964055,333.632283,431.278384,14.146395,65.013871,3.962479,0
7.895469,154.26578,7769.616119,7.205262,258.312879,407.732217,16.420041,63.016018,4.236947,0
7.179628,194.125125,22636.661205,7.114436,331.834874,419.754353,14.192527,66.572387,4.023046,1
7.755154,196.782784,19024.688671,6.911868,392.800081,338.430624,10.772862,76.617599,2.7288,0
7.75727,213.048445,25259.780549,7.635153,363.684814,543.528799,15.254021,107.189584,4.165432,1
7.12002,196.05305,21497.499967,7.014621,333.695002,425.732886,14.407852,66.934492,3.923116,0
8.079808,174.161094,12677.841496,7.295212,333.582542,589.552211,14.852225,39.529387,3.611057,0
6.934998,197.374985,22059.534223,7.101768,334.542375,430.755193,14.434485,66.771147,3.977544,0
7.101728,197.401558,22193.605489,7.135118,330.463681,425.355676,14.298163,66.827067,3.924312,1
6.931053,197.764253,21662.957424,7.129553,333.199044,431.758778,14.287363,63.899631,3.898276,0
7.028993,195.708424,22310.196396,7.215933,332.46258,422.744082,14.507572,67.113784,3.990248,1
6.973685,198.891724,22341.952251,6.963961,332.281832,424.638857,14.116472,66.053588,3.948481,0
7.00768,196.466849,21677.302154,7.006729,333.044833,424.71999,14.462609,66.253084,3.950327,0
6.965776,194.772958,21473.363692,7.081337,332.646466,430.842126,14.245198,64.746909,3.943536,0
7.120567,195.955298,22774.957388,7.035058,333.061802,418.678081,14.449769,65.811578,4.002926,1
7.080653,196.114282,22869.187629,7.233848,334.761187,422.719726,14.09166,65.558278,4.002268,1
7.166107,197.195022,22470.636281,7.132167,335.226331,432.507085,14.066739,65.830351,4.044487,1
7.106068,197.098505,22031.078983,7.139596,332.78634,426.695104,14.538538,67.543983,4.058719,0
7.169817,196.510226,21648.540611,7.307598,332.754525,422.475847,14.586001,65.963168,3.95289,1
7.197844,193.841004,22680.076347,7.15804,335.733188,421.43522,13.978571,66.343306,4.037342,1
6.985258,197.556513,21169.930118,7.071919,334.432974,429.006386,14.449795,66.116499,3.944248,0
7.167353,198.851311,22536.64438,7.37065,333.322748,430.72912,14.059627,66.760749,4.019614,1
7.181893,196.431496,22791.727873,7.208464,331.150165,425.503858,14.389269,66.629379,4.006781,1
7.247668,196.262901,22738.911111,7.285671,330.605335,421.976943,14.458797,65.996465,4.004923,1
6.938821,195.335522,22137.34087,7.064274,333.863084,429.255774,14.519153,66.252104,4.023771,0
7.181349,195.818157,22327.581635,7.216409,331.337536,421.862993,14.568202,65.594819,3.974938,1
7.125564,197.741876,20962.334445,7.185024,335.313089,424.213954,14.326282,66.97668,3.985754,0
9.160998,241.383097,28170.885101,6.819603,262.572042,568.420568,8.120979,48.259572,3.542528,1
8.552782,217.803318,39030.603705,6.986705,373.746193,340.566245,19.084883,53.856055,2.940848,0
7.038153,196.651743,21783.780414,7.15787,333.180934,430.173785,14.441192,67.753103,4.00968,0
7.146208,195.054027,22780.248883,7.18237,333.541594,429.196908,14.208418,68.060062,3.98604,1
7.024683,196.194164,21630.764118,7.072891,335.178035,427.80448,14.252594,65.495379,3.907474,0
6.870511,198.140322,21575.749824,7.20171,334.954412,426.525779,14.271324,67.011374,3.982823,0
4.029053,203.386857,42327.168016,8.550483,279.675256,503.732428,13.758836,46.384064,4.179656,0
8.69315,219.178297,16559.877262,8.877011,355.30498,545.228668,7.283013,73.331529,4.687847,1
7.156764,197.950161,21377.759479,7.052736,334.02881,420.407733,14.334523,65.998998,3.949147,0
7.055289,194.927842,21239.374729,7.027418,332.365817,431.230162,14.00655,66.267571,3.993431,0
7.259493,195.821576,23258.252254,7.265141,337.650393,424.523587,14.230012,66.72575,3.950562,1
7.004671,197.238634,21855.521252,7.093208,332.592214,427.297017,14.487842,68.189946,3.93399,0
7.173125,196.795028,21239.468334,7.045413,334.15604,431.544442,14.264509,67.205592,3.948501,0
7.06097,197.318584,22444.591478,7.0963,332.642008,421.893515,13.880295,66.912445,3.948797,1
7.04582,196.878562,22391.846224,7.091479,333.639492,428.357697,13.997348,67.443739,4.035623,1
7.115251,197.573895,22108.982058,7.096765,331.796415,421.00932,14.224476,67.208579,3.938934,0
5.039673,154.41833,23027.549759,7.759843,422.769068,490.332761,17.728389,69.508526,4.864866,1
7.166106,199.882898,22078.752854,7.121255,332.869756,423.01932,14.144764,66.850488,4.002148,1
6.985017,195.877602,21885.32923,7.158834,333.458846,426.429648,14.385798,65.73519,4.002451,0
7.019117,196.160634,22697.776629,7.077006,334.415122,427.137261,14.438869,67.395249,3.920438,1
7.692524,220.819152,26686.847941,8.286211,299.958846,564.526974,13.861775,77.01594,4.522432,0
7.226717,198.616442,21200.284446,7.13359,334.211161,427.436847,14.12244,67.238714,3.98757,1
7.087255,196.215238,22096.191616,6.966523,335.56736,430.667169,14.211613,65.283816,3.975008,0
7.023131,197.225171,22106.739043,7.12502,335.735602,429.603592,14.601499,64.585981,3.938116,0
7.167824,197.522219,22454.503954,7.118275,334.094305,434.519991,14.221116,65.900895,4.074957,1
7.250914,194.955082,22199.13033,7.248657,332.095645,427.930232,13.999597,68.019198,3.97695,1
7.159315,196.656585,22099.133581,7.25491,332.785518,423.045104,14.026582,66.423108,3.991604,1
7.181565,196.864712,21329.48077,7.047912,332.771363,426.738312,14.529479,66.205714,3.988748,0
7.06304,198.53388,21869.910747,7.18419,333.049301,426.503525,14.590366,65.893709,3.956174,0
8.316766,214.373394,22018.417441,8.059332,356.886136,363.266516,18.436524,100.341674,4.628771,0
7.07464,196.891175,23405.970205,7.145565,332.93574,424.334308,14.219639,65.277412,3.96414,1
7.198281,191.282021,22231.856904,7.136719,334.27091,419.850566,14.374249,68.264313,3.990584,1
7.134469,194.743601,22261.699494,7.095413,332.093524,432.777095,14.207762,65.338694,3.971152,1
7.098073,196.426429,21801.205731,7.290147,334.124088,431.168384,14.660174,66.916888,3.954433,1
7.033821,195.692094,21523.029837,7.257665,332.963235,426.520982,14.677999,66.054782,3.96341,1
7.170089,196.723511,22841.924231,7.117746,335.286524,427.828432,14.141123,66.373686,3.981746,1
5.980357,181.258705,11826.294275,3.688504,356.166613,543.347976,8.828689,60.206381,4.24724,0
7.066713,195.365598,22707.548846,7.106762,337.211954,421.101428,14.089057,66.935748,4.043244,1
7.217393,180.194221,13579.55458,5.993126,317.963404,421.963539,12.370339,63.446749,3.74662,0
4.310701,138.431894,11842.757806,5.60745,364.458497,426.369592,19.588327,48.118629,3.172375,1
7.081767,196.157342,21795.783642,7.124597,330.920945,426.014482,14.398329,65.897272,3.894063,0
7.148151,194.188064,21725.194629,7.274513,333.072871,426.918886,14.485092,66.571319,3.978697,1
7.113634,198.249768,22334.891314,7.180487,329.978243,419.380273,14.494753,65.748989,3.998375,1
6.975441,197.873657,21793.607516,7.142788,334.145054,430.978128,14.409796,66.860647,3.960611,0
6.565319,141.59184,12875.127784,9.116994,340.91392,339.976992,17.10716,86.06751,2.233894,0
7.073149,195.903193,21198.086873,7.006243,336.880398,431.463399,14.479493,66.028539,3.921655,0
7.042099,195.07382,22463.480676,7.168311,330.479654,430.437717,14.538666,65.744897,3.988773,1
7.049687,195.850315,22107.952621,7.114693,332.48385,431.483868,14.3142,66.265123,3.959906,0
7.142639,192.67787,22346.250291,7.266463,330.801935,427.705228,14.362111,65.359216,3.996659,1
7.011576,196.553254,22281.835684,7.416578,332.297916,427.533859,14.309042,67.100044,4.045702,1
7.093168,196.419674,21234.38048,6.970339,336.614635,429.685543,14.549026,66.630715,3.938679,0
7.194857,192.054507,22371.745853,7.283568,338.321375,422.502997,14.49068,66.419148,4.022873,1
7.278402,194.852154,21806.649445,7.081255,333.531378,424.674425,14.338662,66.973161,3.952805,0
7.058548,194.127145,22683.021935,7.343502,331.819757,424.603907,14.482986,67.44776,3.991657,1
6.929586,195.390746,21880.810751,7.128693,335.643297,433.093549,14.504236,67.272054,4.014917,0
6.910677,194.400491,22152.972123,7.130995,332.925413,434.373278,14.056515,66.064189,3.954408,0
6.980946,196.830214,21554.322209,6.985207,331.674958,431.56717,14.352876,65.937355,3.923309,0
6.897546,195.565229,22009.52807,7.035702,335.163968,430.055837,14.372556,66.763489,3.974363,0
7.186931,177.486533,34510.752995,4.984432,295.834151,477.994992,16.77754,62.756891,4.275645,1
7.151274,195.825065,22241.92195,7.159419,333.055831,427.589161,14.362444,65.905265,3.927971,1
7.071791,193.674352,22460.112737,7.081458,335.783564,421.132422,14.194409,66.605779,3.99821,1
7.040574,196.20537,22539.208618,7.011541,329.724619,428.809256,14.153959,67.364629,4.023269,1
7.974248,173.750776,26848.629842,6.055534,337.940482,347.748061,13.757564,75.535369,3.195944,0
7.205731,193.147204,22180.195772,7.155036,332.614832,425.792873,13.987444,67.648506,4.002197,1
7.04499,196.29418,21576.247868,7.061998,334.649201,423.075666,14.380383,67.058494,3.96909,0
7.011269,196.466806,21255.691385,7.146834,333.570334,429.303644,14.228003,67.115245,3.998033,0
7.076718,196.140349,22440.819813,7.330953,331.625918,430.242024,14.223277,66.760256,3.968844,1
7.2275,196.646079,22698.992746,7.215599,335.656473,421.198755,14.234076,66.65744,3.988157,1
7.046152,194.661873,21059.606751,7.330346,334.619618,426.405124,14.300022,66.65495,3.96176,0
7.107082,197.984044,21790.04772,7.172356,334.13413,427.95986,14.424079,66.221253,4.015671,1
7.133106,197.627079,22604.985067,7.193666,330.848337,426.17191,14.216599,65.58671,4.052854,1
7.027173,196.25225,21586.508872,7.044951,334.454013,422.714878,14.409837,65.9029,3.949845,0
7.091387,195.071397,21285.795354,7.140474,333.411398,420.381378,14.418973,66.494118,3.95464,0
7.161586,196.482834,21603.170863,7.044689,334.535384,433.065094,14.339027,65.978258,4.009067,0
7.083215,195.885399,21053.584484,7.086358,331.169628,429.018502,14.618524,65.895974,3.934193,0
7.015566,194.216936,22383.393193,7.195188,328.394182,429.201456,14.384619,66.487192,3.958862,1
6.945179,195.836444,21632.171731,7.040587,335.136971,423.369048,14.417256,65.931125,3.957713,0
8.769676,215.368742,13969.438863,7.548543,322.79907,369.016667,18.919188,54.755214,3.776718,0
7.021069,194.455095,20571.218841,7.092179,331.871969,428.517807,14.105511,66.552227,3.951283,0
7.141048,196.680676,21395.518255,7.132816,336.154847,421.219605,14.360723,65.494017,3.993854,0
6.959778,196.097532,21841.897985,7.074344,336.284083,423.203604,14.282963,65.732664,3.971554,0
7.636454,238.936074,18136.261585,11.086526,351.558811,514.96406,8.637461,55.603512,3.332906,0
6.769573,168.937072,11067.181148,7.121264,305.79495,289.54246,18.545903,62.001571,5.22054,0
9.01148,167.918922,34865.357682,3.139553,400.691774,385.409608,16.57419,50.526551,4.270801,0
7.04389,197.762721,22124.147974,7.003302,331.417652,427.554565,14.199347,67.022053,3.983,1
7.054674,196.358556,22228.232561,7.224191,334.511862,426.750497,14.200221,66.699345,3.989103,1
8.848927,262.598329,24417.861325,5.399013,241.126298,493.855489,13.262439,47.112991,5.992325,1
8.544709,181.413402,31429.379029,7.55503,350.397082,393.889616,10.247232,82.721912,2.318152,1
7.109661,196.916155,21880.890979,7.173584,333.383074,423.430699,14.427451,67.826837,3.934405,1
7.076906,195.680448,21031.966697,7.11079,331.659815,428.734978,14.78969,65.043121,4.022559,0
7.178124,194.632747,22730.523927,7.216987,333.933627,426.707758,14.110931,66.205436,3.922638,1
7.065361,197.157976,21722.605509,7.082886,331.94785,423.178751,14.420943,67.530569,3.996738,0
7.145571,195.062808,21514.584516,7.25783,333.97095,421.980568,14.421535,65.644,3.872615,0
6.979978,194.68006,21509.887176,7.172258,333.571126,426.042151,14.752989,67.082144,3.984446,0
7.186499,195.870988,21759.426045,7.181238,330.358597,424.365551,14.086216,67.881991,4.109166,1
7.079845,193.8754,22283.362967,7.100425,337.393907,425.365468,14.249258,68.497547,3.959238,1
7.135788,197.976589,22370.752319,7.168569,334.992131,425.647374,14.335445,67.776081,3.996292,1
7.055912,196.589961,20869.614177,6.964718,332.40488,421.028496,14.659543,66.6804,3.981123,0
7.093616,195.5111,21155.881086,7.089244,334.667385,425.958046,14.491407,67.117573,4.0317,0
6.939311,195.267719,21650.048985,7.006431,333.616984,427.825033,14.54294,65.619027,3.975582,0
6.460034,215.440641,35775.793396,6.502544,307.563455,365.094143,8.127543,77.554953,3.535598,1
7.117636,194.976778,22141.020952,7.144391,333.990843,423.889075,14.469834,66.183575,3.916601,0
7.322502,196.104298,19534.421648,6.661157,297.841381,418.075511,17.161768,69.467359,2.981649,0
9.913704,160.098247,32129.996307,6.109516,405.295559,541.22077,11.546324,46.08191,5.554667,0
6.949188,195.574163,21632.430888,7.15975,331.759089,424.085254,14.422464,67.177643,3.931024,0
7.054871,194.766483,22607.635893,7.082119,333.005065,422.263803,14.285851,66.624066,3.979214,1
6.980483,199.186369,21362.853528,7.194274,334.436567,422.381969,14.302708,67.745764,4.032453,0
6.767524,203.751056,21162.726735,5.23275,251.062384,334.905376,13.214324,79.863009,3.300253,1
7.102067,195.034323,21669.890333,7.140365,328.607137,429.103122,14.057992,67.078275,4.012061,1
7.121149,197.463348,21721.873796,7.078347,332.811887,433.050354,14.296521,66.061181,4.033307,0
7.18473,199.289314,22691.414379,7.176677,331.303388,431.002159,14.19636,68.180445,3.967875,1
7.029394,194.940123,22058.987279,7.259506,330.544012,418.941523,14.291126,65.892174,3.995154,1
7.144626,193.289364,22640.980623,7.169271,330.06984,425.227479,14.450832,67.054618,3.963554,1
6.971899,197.346351,22214.871914,7.093171,333.424671,419.904816,14.451812,66.76035,3.945053,0
7.207514,196.480912,22850.900292,7.296091,331.868435,421.961591,13.953506,66.549617,3.961788,1
7.130972,197.931581,21968.120603,7.103118,332.199539,422.414715,14.216561,66.627669,4.00545,1
6.512737,229.263861,22475.046873,12.580026,192.033592,479.501279,9.983462,66.668576,4.612964,1
7.134631,196.885184,22459.478114,7.240069,334.276353,423.686377,14.388447,66.923024,4.020843,1
10.164173,243.606508,16522.715754,3.992171,310.845072,487.698052,17.223237,83.871496,3.530941,0
7.581688,180.74914,11989.246243,4.977307,328.176978,617.883513,13.561253,39.215917,4.457282,0
6.931855,195.95811,21852.943429,7.01058,331.679586,424.008359,14.267793,65.777318,3.953533,0
6.150553,212.819377,15017.747281,5.544436,319.494952,279.447066,12.850506,75.028793,4.810537,0
8.721727,206.369682,28608.052076,6.325442,377.404538,506.938353,13.553751,42.381484,2.555027,0
7.083784,196.059716,21831.181646,7.110371,327.100234,421.097781,14.411519,67.186781,3.933975,1
7.124069,197.210852,22097.539543,7.22637,332.874941,427.248428,14.242304,66.223399,3.946329,1
6.965051,197.094658,21637.421668,7.041977,336.662273,422.366153,14.705095,66.729477,3.927544,0
7.051277,197.478863,21054.099953,7.094061,332.868967,433.986023,14.603698,66.87709,3.945121,0
6.940602,197.855735,21920.801874,7.079556,331.310699,427.72459,14.063352,66.825864,3.981844,1
9.393148,215.051365,20592.258942,10.089537,331.338739,447.07446,10.778633,54.426968,4.665681,1
6.996249,196.917492,21692.392701,7.347891,335.814851,427.154382,14.65772,67.408199,3.959487,0
7.030337,196.394278,20975.150126,7.077075,336.637393,430.585028,14.207852,66.549648,3.947724,0
7.030678,196.119596,22431.056178,7.127909,333.738019,432.054478,14.338755,67.020055,3.987925,1
8.140344,153.74817,50793.898917,7.843498,306.21895,423.455906,14.322019,65.07661,4.362792,1
7.045138,196.707306,22522.571591,7.066863,333.476836,428.538649,14.354602,66.720313,4.025465,1
7.032482,192.978304,22350.652627,7.263487,333.711775,427.604129,14.25835,67.795781,3.932299,1
9.002583,202.990765,19523.124865,7.244753,330.361512,366.491729,15.689404,55.6974,4.904837,0
7.145762,198.194913,21773.672874,7.059735,332.511585,428.754631,14.305329,66.067077,3.945935,0
7.013002,196.468992,21713.196757,7.115126,329.456774,426.104152,14.741134,65.355361,3.899421,0
7.114333,194.40894,22123.222606,7.129319,330.150329,422.635435,14.237628,66.447354,4.000304,1
6.017261,206.0144,15157.268787,7.582124,307.704474,431.781987,14.221757,53.319977,4.427712,1
6.987604,194.584146,21713.071457,7.17568,332.004373,432.051037,14.586448,65.622469,3.949899,0
7.24766,198.047084,22076.161278,7.137635,329.179422,421.749075,14.273106,65.731166,3.909173,1
7.172244,196.977204,22422.807186,7.135988,331.611914,420.973748,14.03312,65.631608,3.979325,1
7.143585,195.724837,22083.311325,7.115502,332.009784,416.114545,14.238669,68.048587,3.992676,1
7.0158,198.065215,21485.477784,7.266904,335.227528,424.405938,14.328383,66.539924,3.958787,0
7.049163,194.1691,21925.017055,7.130532,336.328113,425.512833,14.497614,65.96691,3.967662,1
7.150126,195.356278,21414.129558,7.289214,334.315607,425.741948,14.340754,65.621827,4.043479,1
7.054497,195.080839,20643.611064,7.016366,333.73126,428.632486,14.598167,67.133482,3.954651,0
8.999499,234.835477,20933.51275,7.980451,365.060966,444.077017,12.168764,54.404704,3.695084,0
7.230277,196.715962,21768.098836,7.033941,332.451188,420.560933,14.177568,65.531202,4.007067,1
6.715799,193.162501,16006.972588,6.369163,314.452425,316.278029,17.865533,85.192511,4.999752,1
7.070381,196.712343,22714.64017,7.082186,332.626505,425.064824,14.474547,65.944315,4.009925,1
6.935168,194.216989,22090.353544,7.088457,331.070283,427.130196,14.470397,65.689099,3.928948,0
3.906078,233.402835,32144.799934,6.99484,348.359448,269.449051,9.654126,63.743064,3.90288,0
7.125078,195.134967,22177.046516,7.191016,334.99774,430.795535,14.380754,67.222342,3.978421,0
6.922042,201.410123,16515.872166,8.463004,357.935222,336.046451,20.929103,60.520904,4.242947,0
7.063646,192.335945,21779.876518,7.09476,333.787952,426.131463,14.540904,66.106382,3.913689,0
7.066093,197.22539,22000.344763,7.179968,336.773271,419.280574,14.496978,67.123246,3.951421,1
7.5437,161.623142,19116.012084,8.493407,289.959953,440.283446,13.33677,80.243237,3.630537,1
6.95426,197.026975,22093.567647,7.045312,330.841731,432.067203,14.440004,67.193972,3.997913,0
7.102908,196.099899,21676.602241,7.134448,335.603777,429.342722,14.590739,64.096137,3.939613,0
7.138125,198.974062,22190.693071,7.173752,329.215683,420.205405,14.396557,67.38013,3.944843,1
6.887864,173.325022,19947.924178,7.488703,334.098023,441.002612,10.780501,89.005492,5.454488,0
7.07964,196.522795,21656.526862,7.009903,331.524015,426.66476,14.299748,66.72148,3.971495,0
7.022164,194.581264,22223.188418,7.065216,331.455388,434.441066,14.330873,64.758879,3.963591,0
7.104767,198.134336,22270.974648,7.243032,336.619246,417.928606,14.293304,66.075883,3.995587,1
7.115623,196.305642,21536.537504,7.142908,333.283548,431.861219,14.098554,67.763306,3.957031,0
7.019249,196.83245,21685.141672,7.0465,333.135782,433.323224,14.64982,66.438395,4.001162,0
7.031778,195.072475,22339.495487,7.092686,331.699601,423.233423,14.698951,66.75774,3.922165,0
8.66271,173.531947,20333.079495,5.636388,439.787938,459.63312,16.283311,89.924253,5.120103,0
11.244507,169.403655,43533.657845,5.88846,341.0296,336.446655,16.08971,59.494026,2.929953,1
6.982043,194.013149,22301.221827,7.130937,331.19984,428.205478,14.390098,67.357872,3.958772,1
7.030957,198.145692,21752.815234,7.138893,334.565627,430.75412,14.48885,64.838568,3.947535,0
7.024772,196.503488,21308.442255,7.040525,331.178837,422.949815,14.393442,66.76164,3.956213,0
7.277935,197.146292,21833.736126,7.110142,332.527022,431.146472,14.015904,65.522552,3.973818,0
7.112829,197.127853,21560.676382,7.147808,332.802956,429.690158,13.988157,65.625522,3.908752,0
7.255,193.791581,21445.592603,7.063457,333.134082,427.013479,14.554865,65.785581,3.945386,0
7.132744,196.824566,21275.233417,7.08183,334.748203,426.481909,14.422401,66.132156,3.957452,0
7.141785,197.763533,22389.325336,7.076744,333.261229,428.694004,14.049501,66.556827,3.913877,1
6.938227,195.326006,21765.6286,7.046049,336.504198,421.277452,14.572402,65.73622,3.897977,0
7.046164,195.1009,22510.279229,7.277537,332.425118,422.838085,14.190356,66.485536,3.967183,1
7.055872,195.580134,20956.60542,7.104433,331.015312,425.974892,14.251945,65.342773,4.008102,0
7.137326,193.790068,22830.743862,7.046184,334.302485,429.91077,14.360037,67.820539,3.952721,1
9.920691,202.817483,9973.934059,6.882248,337.350529,333.19247,23.917601,71.833624,4.690707,0
7.154904,195.437258,21600.871854,7.15087,335.359468,425.028328,14.271305,66.031258,3.941874,0
6.648849,181.688122,30733.503838,5.961272,343.925222,257.704179,17.758444,35.296181,4.827527,0
7.147917,198.498775,22755.018063,7.087092,335.399941,424.202367,14.114548,65.966456,4.019316,1
7.064496,192.257673,22757.121525,7.312343,331.988955,422.452866,14.354648,65.447259,3.993034,1
7.117436,196.506819,22516.881307,7.224678,329.059526,422.9845,14.334126,66.581302,4.072926,1
7.132315,196.293823,21616.172418,7.133142,332.257844,426.974663,14.306691,64.914491,3.980645,0
7.071949,197.202462,22548.791242,7.090562,335.918307,430.462832,14.248851,65.479788,4.015108,0
6.963344,197.790258,22071.314833,7.202768,332.40005,416.410552,14.104089,66.401314,3.905939,1
7.069393,197.23751,22317.387639,7.077025,333.629407,430.902123,14.211988,66.801741,3.954073,1
7.082821,195.420336,22326.915986,7.077278,329.587961,430.003949,14.258428,66.77726,3.936709,1
7.139852,196.610506,21500.58623,7.083626,334.135576,417.64178,14.476069,66.393288,3.979188,0
6.907404,195.987937,21048.211279,7.140885,334.40249,433.830168,14.140972,66.016361,3.963042,0
6.978056,192.968726,20903.525993,7.224968,334.011662,432.358219,13.9279,66.142702,3.913621,0
7.179681,197.871498,22431.596508,7.272574,331.730144,420.724846,14.256886,65.778055,3.969675,1
7.002632,195.051768,21460.594047,7.102248,334.72602,432.654068,14.470728,65.571616,3.95872,0
5.468361,180.382364,12305.905415,5.446563,410.459272,388.745502,12.553094,60.627748,4.933468,1
7.154794,200.53849,21681.074555,7.073997,330.464216,425.742318,14.092358,66.421664,4.017694,1
6.998985,197.408048,21042.596215,7.050273,338.184738,429.391422,14.317351,63.636263,3.980571,0
7.062997,195.967182,21195.624973,7.103904,338.443972,421.445868,14.401179,65.223416,3.969927,0
8.52617,175.612836,11837.12336,7.483709,308.398516,474.240482,21.845916,52.372201,5.083014,0
7.113771,194.775486,21426.953419,7.006473,331.537825,425.092675,14.366265,67.77624,4.01153,0
6.980353,196.131209,22761.495025,7.223166,331.407591,425.306855,14.33062,66.399066,4.034529,1
5.621227,221.64944,11123.886159,8.809433,314.871342,326.350873,19.312536,84.377323,3.440753,0
7.207382,194.808199,21908.291253,7.146387,333.304482,432.594855,14.174222,65.468786,4.009241,0
7.130539,196.21608,22261.024888,7.135127,334.184459,430.046294,14.298162,64.92352,3.95408,0
6.504876,159.182139,13403.086389,6.958284,296.076914,359.974437,15.63685,63.514312,3.748443,1
7.048819,195.844261,21830.694277,7.050203,331.490905,426.681878,14.451772,65.82688,3.965184,0
7.221813,197.548348,22193.696504,7.224128,332.486366,424.871151,14.529007,66.810839,3.957555,1
7.119615,197.39033,22575.762243,7.023971,331.189928,425.154998,14.434579,66.017962,3.978241,1
6.941708,194.974804,22012.138857,7.142076,330.722806,429.132971,14.343457,66.621151,3.949008,1
7.177649,192.48483,21742.517878,7.267851,330.800842,425.63301,14.220217,66.588106,3.970057,1
6.770927,181.818066,26880.22004,5.215862,284.74551,475.54896,14.665441,60.515772,4.910534,1
8.596767,202.343187,15173.47115,7.248625,373.653328,315.47907,15.008674,76.879669,3.238693,1
8.114665,236.493275,26631.212874,6.266782,275.09087,496.989792,18.588534,58.313345,2.654594,0
7.089574,197.095632,20608.94837,7.07668,334.738768,425.828571,14.07793,66.225746,3.977,0
7.369087,198.204082,28232.018406,8.899712,289.599692,424.454254,18.156754,31.599404,2.715187,1
7.121703,194.530298,21691.344953,7.115336,333.563183,431.687141,14.471181,64.735442,3.98762,0
7.142685,193.969031,21299.174732,7.050708,335.853411,424.871103,14.380341,65.934506,3.924646,0
7.096676,197.671265,22332.117636,7.052224,334.25612,418.456374,14.261062,67.048009,4.016455,0
6.746935,154.332162,25137.427677,8.495904,274.884089,330.083723,15.983632,69.943254,3.485536,1
7.142815,194.795503,21832.07829,7.239946,331.367347,426.844236,14.307641,66.093634,4.003257,0
7.015333,222.113004,16351.226287,7.838884,353.189806,420.136873,8.840514,66.543935,5.251223,1
7.041138,195.295463,21356.086864,7.114863,332.733417,421.731959,14.211596,66.558379,3.966568,0
7.087836,193.064869,22523.982641,7.035985,330.556906,428.484245,14.221555,66.985356,4.030417,1
7.161853,197.414729,21927.58707,7.169917,330.72354,429.127633,14.2704,66.27361,4.024309,0
7.040245,192.955983,20988.42941,6.422359,320.948844,381.35735,15.396455,88.298465,3.99341,0
6.985869,195.833785,22507.495211,7.186275,326.272371,416.80732,14.043672,67.517258,3.961802,1
7.173188,193.731346,22721.790981,7.1492,331.325597,423.74543,14.521365,68.340619,3.987076,1
7.167389,193.967695,21916.695444,7.197765,332.0753,427.094986,14.123551,65.326498,3.964643,1
7.259128,196.044922,22779.545143,7.160224,335.511122,421.318725,14.200908,67.647492,3.996248,1
7.100192,197.747874,22270.868912,7.205137,332.071595,428.002007,14.289583,65.715712,3.954763,1
7.106411,195.367665,22920.23645,7.326707,329.492994,426.091431,14.327921,67.112338,4.002155,1
6.985666,195.619734,22414.119404,7.286136,332.314077,422.687185,14.0097,67.899309,4.00067,1
5.664846,186.648359,18678.950811,5.153873,313.083489,335.505521,17.55157,59.571837,3.57029,0
7.001098,196.432918,22145.907612,7.181419,336.557844,428.363208,14.364679,64.909612,3.924116,0
7.098362,194.095526,23209.93426,7.186842,331.143448,427.988038,14.322297,66.659827,3.939754,1
7.104503,194.271498,21348.451463,7.107972,336.345657,431.803146,14.544932,66.155285,3.935231,0
7.188352,195.917943,22128.097133,7.040976,329.125321,434.41376,14.420675,66.08375,4.026282,0
7.157986,197.33656,22238.369318,7.217854,331.876438,428.862754,14.18493,67.422324,3.975585,1
7.003763,199.339976,21896.413292,7.183342,335.469598,430.664191,14.576389,68.209305,3.966234,0
7.069144,195.808132,22576.584063,7.080794,332.610841,424.652894,14.358323,66.234031,4.00067,1
7.091324,197.881802,21876.039178,7.020548,333.043971,426.512146,14.362803,66.800561,3.967643,0
6.968209,178.217311,39995.186272,8.930689,337.06495,393.676958,14.243374,75.375743,3.632644,0
7.269222,194.573435,22550.884806,7.169997,336.993913,429.682907,14.434924,66.153429,4.028008,1
7.096656,195.444476,21264.140238,7.041431,332.221031,421.266779,14.264174,66.832037,3.906158,0
6.999133,196.138764,22688.531907,7.173349,334.066934,426.011694,14.342514,66.095858,3.987065,1
7.086237,197.030301,22886.80485,7.113858,331.333092,425.900736,14.297804,66.090051,3.943722,1
7.234575,196.968208,22146.280524,7.097674,334.932117,426.429472,14.433179,66.203692,3.933502,0
7.24074,201.186804,23783.099556,7.751285,340.983683,579.220394,13.486379,62.650236,3.556297,0
7.185667,196.283127,21165.300325,7.047285,336.023144,433.953339,14.228042,66.181599,3.999209,0
7.053466,196.548977,22479.307023,7.283136,326.569747,429.388552,14.344993,65.696391,4.053756,1
7.171894,197.408953,22190.045922,7.387837,335.361098,428.719742,14.464679,66.841142,3.960186,1
7.169012,199.620287,22584.201625,7.040735,335.868237,429.199173,14.444088,66.206405,4.030331,1
6.978305,193.855514,22464.490938,7.219757,330.230943,421.174113,14.060315,66.797501,4.003728,1
7.130102,193.417815,21474.180973,7.201464,335.361273,427.375093,14.518728,65.705478,3.989931,0
7.053548,199.613747,21515.533149,7.135824,332.220552,425.787424,14.416544,66.68905,3.961858,0
7.077266,196.603998,22214.689227,7.186513,333.77001,426.007619,14.558984,66.401151,4.071297,1
7.038478,195.850179,21603.246219,7.077184,332.486218,430.740955,14.243609,68.10026,3.961736,0
7.06366,197.35879,23761.701808,7.362789,336.13273,424.500661,14.075771,66.54275,3.979364,1
5.49758,204.68287,29493.422967,7.60413,323.608786,476.844459,16.672415,83.413838,5.060115,0
7.079005,196.051658,22053.652494,6.992364,333.754614,422.989216,14.385013,65.522917,3.95117,0
6.280978,205.123123,25972.803751,8.417896,383.671459,456.543945,13.95471,32.799029,4.599432,1
7.417503,198.705653,24389.362885,4.790681,289.331358,366.370724,18.41518,87.996223,3.391241,1
7.121034,197.098337,22810.684653,7.306319,328.995435,427.71552,14.224936,66.509132,3.974945,1
6.150488,240.888422,6342.502843,9.609896,421.343186,354.392526,12.340384,83.238661,3.551656,1
7.190931,198.36145,22504.154994,7.113421,337.149136,428.398448,14.119933,67.248616,4.079014,1
7.105652,196.343922,22298.514347,7.035715,328.516351,429.237976,14.507216,65.41946,4.034789,1
7.179038,195.779606,21896.730322,7.192633,329.088319,425.349867,14.403541,66.798338,4.039967,1
7.040388,195.184369,21417.554145,7.148057,331.689807,425.42618,14.467369,65.139491,3.930266,0
7.122068,194.933986,21607.518569,7.071321,332.545751,427.797544,14.267185,66.355451,4.025205,1
6.990323,196.328982,22349.203733,7.068681,331.277198,424.77175,14.29063,66.13092,3.915561,0
5.999125,219.716109,19345.791332,6.029641,264.285069,497.477151,16.381195,46.303523,5.046973,0
6.869639,251.293448,21728.821295,8.803175,279.776857,539.466877,12.99414,56.409708,4.726702,1
7.002428,197.975628,22126.378382,7.198404,329.796552,419.276278,14.308888,68.076501,4.011243,1
6.9511,195.576898,22427.891644,7.117581,334.341289,423.239421,14.143412,67.228356,3.892288,1
7.226236,194.868817,22549.295863,7.2934,333.898764,419.600412,14.241983,65.562227,4.050921,1
7.101983,196.078199,21698.276513,7.093782,337.767929,428.030121,14.249265,67.08972,3.97566,0
7.040031,196.251421,21666.204935,7.396347,333.71852,424.229279,14.099592,66.680695,4.02639,1
7.047053,196.125095,20914.379736,7.041446,334.416406,429.575547,14.204602,66.658012,3.973402,0
6.417702,185.312183,33360.170722,5.573849,374.713855,509.819653,17.848994,103.321827,4.046306,1
7.06897,194.87196,21526.313797,7.054435,331.573051,425.241161,14.249506,66.134001,3.955764,0
7.085623,195.585547,21365.518074,7.186443,335.451646,432.079884,14.314659,66.999123,3.966605,0
6.946896,194.902921,21493.649288,7.083789,331.422857,431.6444,14.320072,66.269111,3.889352,0
7.06954,197.452914,22631.816225,7.208923,332.630897,419.207372,14.090332,67.406042,3.905286,1
6.97485,196.762561,23092.513755,7.071187,328.31944,420.41572,14.247703,65.556881,3.966829,1
7.955026,244.395898,32405.413861,3.318045,307.643561,433.911804,16.254483,67.680774,3.955917,0
8.426906,159.690251,19576.530381,7.664375,344.14513,390.6909,17.747037,53.631504,4.244514,0
7.251051,197.528937,21370.808867,7.034722,336.471105,427.466805,14.375455,66.335053,3.952152,0
7.753936,220.098279,17169.584382,7.984039,344.121899,385.045003,16.848512,47.003322,4.833027,1
7.049462,195.677051,23114.431122,7.140172,331.40359,426.5507,14.476054,65.870352,4.02254,1
7.198593,195.146249,21089.843943,6.996784,337.487065,423.83977,14.301927,67.641879,4.039349,0
7.041786,198.255323,22264.617533,7.184324,330.464629,429.36045,14.143292,66.237909,3.929452,0
4.317187,225.514573,27163.457876,6.888136,325.933679,446.341319,17.152945,43.385914,4.078277,0
7.105299,197.288393,22304.885807,7.098037,333.628896,424.480975,14.401697,65.931337,4.003779,1
5.57102,189.728229,26138.09761,8.832762,361.855549,434.051253,16.166931,88.727373,3.931307,0
7.071096,194.573646,22081.199272,6.979272,333.561642,427.26517,14.373553,65.828454,4.003036,0
7.096629,194.801546,22888.339756,7.225662,332.419818,418.846575,14.511913,66.830013,4.046088,1
6.945683,195.350496,21274.390424,7.173437,335.054138,424.884402,14.168862,66.379271,3.900547,0
7.031199,193.449912,21972.760166,7.16722,336.000179,424.925594,14.413374,66.935292,4.008748,1
7.06423,195.827653,23164.021115,7.146628,328.883362,429.243523,14.377095,68.170352,3.984865,1
5.603326,207.897187,36873.557989,7.631346,404.672921,511.43752,13.515236,85.345585,3.900421,1
7.138381,197.758474,21786.162608,6.89912,335.038523,428.771835,14.516544,65.507297,3.991396,0
7.244106,197.745115,22041.711665,7.067337,335.204546,433.796798,14.124103,66.090779,3.959594,0
7.116476,196.232953,22305.113455,7.10542,332.499575,423.629854,14.199474,65.484543,4.04126,1
7.085822,195.899636,22259.797698,7.017775,333.293513,431.084973,14.477402,65.838902,3.855812,0
6.986861,197.851743,21889.513275,7.118229,335.952423,422.51705,14.709492,67.143464,3.953304,0
7.3374,176.7535,18543.499362,7.127078,278.361177,427.930687,14.773005,85.680836,4.981834,1
7.481398,186.074765,13781.780284,4.649254,377.344372,323.772843,11.687124,66.29165,4.039976,1
7.127083,197.175827,21537.624351,7.180332,333.280084,422.223135,14.771271,65.456042,4.044017,0
7.172248,196.648461,21819.551953,7.126442,332.948117,427.904325,14.441828,66.638154,3.945796,0
7.107564,193.797777,23208.798353,7.340682,331.562073,428.174435,14.249941,68.295482,4.001982,1
7.182933,196.664098,21926.201642,7.132995,330.873773,427.99153,14.207274,67.253586,3.985499,1
7.073234,196.574808,21277.390522,7.029059,334.094658,428.833253,14.267418,65.330065,4.000735,0
8.684779,161.124205,40799.360328,5.381994,305.533784,499.275401,15.965652,75.914398,3.877349,1
7.054122,195.751693,21613.366639,7.012745,334.630688,431.372655,14.287407,65.459326,3.965503,0
7.139437,196.319321,22477.875732,7.254723,333.134508,418.776816,14.375517,67.106187,3.978154,1
6.980833,196.440346,22125.440551,7.049443,335.910247,428.783422,14.496499,65.220789,3.933023,0
7.162906,196.871359,22406.074434,7.120449,334.884213,427.609989,14.100607,67.425335,3.981386,1
3.798391,189.618528,18529.798031,6.888257,396.10723,365.272965,15.266331,86.680711,4.833508,0
7.174042,195.30345,22678.064323,7.185898,332.528954,427.688276,14.267306,66.22937,4.007641,1
7.108478,198.884058,21985.274533,7.085611,329.524377,426.541361,14.187246,66.917018,4.027772,1
8.861702,200.612299,15247.128031,6.050225,313.127081,521.774114,13.780427,69.870484,3.579107,0
7.030435,194.106901,21056.849845,7.169367,335.652686,421.008611,14.39217,64.974247,3.892885,0
7.10687,196.625863,22525.340544,7.161819,330.347439,425.9503,14.545409,67.290012,4.051271,1
7.0588,197.146661,22008.230007,7.234969,332.295901,428.748705,14.545872,66.334543,3.962516,1
7.167819,198.160491,22536.426257,7.084793,332.231596,430.455018,14.346628,66.210574,3.980154,1
7.173179,197.683382,22004.837819,7.037289,336.331627,418.750584,14.36173,65.353044,3.968471,0
4.80804,186.16057,19118.050299,7.054444,359.406236,577.491371,8.304288,73.153089,3.59776,0
7.065919,198.577157,23010.301998,7.258195,333.537726,422.305555,14.252225,67.220928,3.935313,1
7.100593,198.887832,21591.32721,7.073524,334.806212,432.225726,14.489195,67.333935,3.968046,0
7.01275,196.320156,22050.783224,7.106034,331.113731,430.26486,14.049004,68.179244,4.025534,1
7.093917,197.558884,21902.345117,7.202825,332.03991,430.100363,14.499445,65.977164,3.975286,0
7.061713,195.188475,21223.279243,7.191244,337.818436,434.322287,14.598238,67.498325,3.890747,0
7.242259,195.515796,21466.486695,7.260434,332.048019,427.165892,14.053714,65.291452,4.039541,1
7.034434,199.856659,22628.343016,7.132378,335.321416,424.369523,14.098633,66.28025,3.967017,1
7.06193,197.947694,22881.456672,7.170366,335.296998,417.37932,14.225231,66.981471,3.986233,1
7.100268,195.697105,22435.356478,7.186606,324.952662,428.635564,14.149551,66.49545,3.966301,1
7.240352,195.115821,21898.135837,7.216178,336.63105,425.793281,14.294065,66.454059,3.997166,1
7.070672,194.843032,21979.53518,7.193007,335.499867,428.085504,14.196643,66.800582,3.950392,1
9.18156,273.813807,24041.32628,6.90499,398.350517,477.974642,13.387341,71.457362,4.503661,0
6.956203,195.345625,22761.523984,7.189808,331.914398,424.399689,14.200074,67.209917,3.987653,1
7.035896,197.305563,22715.620655,7.027412,333.505301,427.038717,14.286036,66.224367,3.97075,1
6.952613,196.004477,20917.078051,7.003807,334.94093,428.369065,14.394076,66.325883,3.933115,0
7.203949,199.114978,22129.296475,7.227691,332.647064,423.776523,14.410235,66.460913,3.915098,0
7.164032,194.507789,21911.791048,7.042383,334.568093,425.063901,14.469831,66.934671,3.978785,0
6.898315,228.802804,45939.689158,9.564027,377.813505,392.382326,13.872994,66.983589,3.822307,0
7.078,196.357881,22457.598901,7.103977,333.69512,430.411404,14.315082,67.963425,4.02013,1
6.187938,249.527111,12682.150941,6.253224,263.268416,274.764703,14.352955,57.623368,3.546183,0
7.05496,193.205627,21942.352043,7.121693,334.068859,426.288909,14.40294,66.237023,3.977321,1
10.209956,148.379235,18413.09682,7.407967,390.619013,410.568172,15.103624,89.178485,4.112598,0
6.99564,195.371776,23005.48354,7.261055,332.540757,427.99758,14.538422,66.452123,4.005754,1
7.249353,198.830696,22274.88044,7.314701,336.045901,418.087427,14.088962,67.47436,3.944085,1
7.0282,195.997509,22964.868734,7.260143,329.436915,429.291606,14.406108,65.771553,3.999816,1
7.012687,197.30622,21149.527319,7.109329,336.209895,430.852163,14.344765,65.930736,3.87752,0
7.159102,198.239701,22493.438277,7.215053,332.977906,421.964421,14.40672,67.350888,3.996602,1
6.961609,192.655601,22127.901546,6.998053,332.718136,426.731837,14.848598,65.980737,3.989878,0
6.993616,196.985965,21482.79491,7.076942,331.754388,422.716493,14.60184,67.023876,3.93139,0
6.947527,196.126353,21284.355229,7.118594,332.512947,423.105501,14.262658,66.09567,3.903473,0
7.196398,194.182768,22632.372936,7.163305,333.471357,436.126619,14.197993,67.430205,3.974047,1
8.783597,199.930278,19471.465438,7.415406,319.737009,324.937029,16.311696,74.570581,3.470885,1
7.142742,192.412493,21958.749129,7.174209,332.659122,424.250447,14.381946,67.080368,3.931316,0
7.062389,193.945286,21267.603027,7.053478,338.682143,426.336617,14.230887,66.53501,3.983551,0
7.740454,182.541073,19713.504368,8.854386,382.34159,489.047044,8.866967,57.877455,3.541317,0
6.898621,197.545086,21414.735838,7.084919,335.018703,424.781582,14.495031,66.831029,3.908187,0
6.906198,196.170558,21640.088483,7.166135,333.092766,427.702672,14.315157,66.363472,4.044876,0
7.173383,194.403391,21870.404164,7.079273,334.670094,423.053797,14.243818,66.461486,4.099285,1
7.125733,194.506747,21966.169515,7.130503,334.923364,428.346822,14.322004,65.861567,3.933343,0
7.151998,198.486393,22980.29252,7.254056,332.822038,427.351597,14.158698,65.188413,3.952584,1
7.129022,195.830995,22257.644461,7.129698,334.16767,426.5759,14.56128,66.976925,3.92362,0
7.050827,199.187889,22806.906243,7.200652,334.275779,429.079664,14.735896,65.539291,4.012664,1
7.463916,215.479068,27150.3954,7.782915,382.958737,403.703502,14.777092,56.956939,5.075844,1
7.016292,196.582074,21999.515965,7.076761,332.115534,426.561454,13.951915,65.759319,3.949409,1
6.864353,197.659275,21860.819361,7.100797,333.358052,427.589683,14.406238,65.929129,3.883416,0
7.067387,195.688274,22341.328749,7.189845,332.764949,421.953646,14.049675,66.282017,4.05905,1
7.126964,195.27637,22566.176013,7.133482,335.471059,425.37768,14.243137,66.042964,4.00165,1
6.955845,194.915156,21914.764655,7.196148,332.153105,425.106548,14.216354,67.407847,4.018217,1
7.103774,197.321487,21488.019775,7.017639,329.182871,425.380701,14.298045,65.773089,4.019741,1
7.111577,196.319648,23278.814263,7.170667,336.099727,424.660254,14.150593,67.271012,3.97815,1
6.877544,197.163259,22194.345569,7.147964,333.873521,431.732247,14.449409,66.063394,3.898708,0
7.036486,194.049398,22121.112728,7.354891,330.631163,426.597369,14.117241,65.740433,3.949028,1
8.052894,198.994474,9025.07936,7.217788,338.39691,328.43311,9.142523,42.753215,3.634845,1
6.980675,197.11797,21082.896956,7.131378,336.029542,431.321638,14.371922,65.925361,3.951531,0
10.761898,81.710895,25999.953669,8.477394,318.427241,392.704082,12.71635,52.246972,4.661799,1
7.127967,193.974646,21490.071598,7.16175,333.502182,424.884449,14.352755,65.89311,3.942528,0
7.036118,198.809583,22351.681686,7.186544,332.409941,434.15015,14.619969,65.888187,3.939037,1
7.050633,196.871358,22056.649473,7.115539,332.050218,432.72552,14.217508,64.761522,3.957589,0
7.22293,193.85491,21400.163142,7.036302,334.297915,429.414802,14.319425,66.102334,3.951667,0
7.005896,194.461076,21102.748391,7.128312,334.25027,424.267782,14.522005,65.294271,3.944193,0
7.012924,197.700964,22034.187208,7.151365,331.811713,424.683971,14.575443,66.53769,4.003115,1
7.179952,194.49333,21427.552448,7.318094,330.572589,425.111282,14.404369,66.638395,3.981832,1
7.033146,195.16491,22247.487118,7.212364,328.670929,423.243618,14.149332,66.017907,3.940798,1
7.128053,197.603679,22699.049407,7.240346,333.743579,421.701553,14.363257,66.015216,4.004252,1
6.825468,187.05171,46140.12685,6.137757,352.702182,373.427235,12.606382,58.752201,3.02745,0
9.578227,205.748742,33080.588825,5.659848,356.698301,333.069911,16.984961,68.906088,3.419239,0
7.03184,198.997404,22737.321405,7.096191,330.270786,427.325984,14.195521,66.06634,3.931188,1
6.91389,197.929526,22361.606632,7.093199,333.871654,427.20352,14.280166,66.304601,3.947883,1
7.065366,194.832341,21884.964442,7.205901,328.229313,426.02981,14.099893,65.864042,3.975842,1
6.96721,198.352571,21699.869985,7.068806,333.56837,429.728643,14.394695,66.255961,3.984016,0
7.03734,197.48318,22771.243489,6.913414,330.557845,421.421338,14.482974,64.307814,3.989616,1
7.171638,193.839854,22366.171336,7.216839,334.760033,423.840874,14.271916,67.685781,3.932121,1
6.967513,197.570414,21644.978514,6.983076,333.080089,424.648533,14.318442,65.286348,3.939185,0
6.940084,196.068704,21476.884144,6.994028,332.971524,422.83214,14.327608,66.603144,3.945065,0
7.202043,196.289203,22293.312281,7.07382,331.315695,428.545871,14.270525,64.038726,3.939399,0
7.496991,246.863581,22631.657727,3.44088,297.132449,357.498459,16.141286,79.70553,3.837926,1
6.929209,195.885251,21660.146178,7.14047,331.323113,424.990384,14.581019,65.972036,3.894753,0
7.116391,194.428626,22389.745415,7.179949,328.408778,426.062902,14.262279,66.269456,3.977184,1
7.116688,197.792725,22894.513696,7.323009,333.198957,425.444668,14.102015,67.176241,4.042929,1
7.001021,198.692185,21615.347989,7.199807,330.952658,435.905759,14.481083,66.237097,3.994612,0
7.163941,195.174663,22122.711572,7.418912,332.863856,416.491203,14.218217,66.445527,3.956885,1
7.098246,194.511161,22665.003737,7.213343,333.4132,423.780254,14.067134,66.407898,3.982653,1
7.100025,196.943397,21875.843769,7.070444,335.976042,420.827549,14.059176,65.448303,3.957695,0
5.140801,209.358561,21407.614287,4.415976,230.555856,378.89719,2.2,86.737223,4.192257,1
7.159401,194.560998,22152.227972,7.038336,333.052427,428.614116,14.48824,65.428341,3.965003,0
7.201602,197.490755,21279.970203,7.03469,332.803035,428.134293,14.566533,66.602432,3.928515,0
7.119824,156.704993,18730.813653,3.606036,282.34405,347.715027,15.929536,79.500778,3.445756,0
7.055655,195.788673,21936.387017,7.136034,336.134201,427.598464,14.754194,66.462005,3.991352,1
6.967697,177.05589,22886.965735,6.430935,315.282902,507.790062,15.288038,35.767601,4.819637,1
7.131465,196.074246,22584.184357,6.965117,335.188401,423.796374,14.003945,68.310801,3.950076,1
6.966175,197.166742,22594.03425,7.09326,334.472256,421.409261,14.252348,66.504176,4.017228,1
7.130946,197.396007,22553.883968,7.211448,335.42381,430.121858,14.420033,65.859487,4.037086,1
7.149319,197.875022,21474.484209,7.160651,335.029369,425.467461,14.259742,66.216199,4.025572,1
7.045112,195.309119,21299.985782,7.16593,337.971557,432.396883,14.622183,66.724719,3.92054,0
7.033935,196.509209,21109.70701,7.165011,331.576644,428.629394,14.099262,66.488139,3.949006,0
6.982518,193.826045,21508.757158,7.10768,334.394533,420.344151,14.56779,66.210603,3.99318,0
5.58813,220.817522,8730.312436,8.321897,300.220428,412.708557,6.478626,80.637806,3.165618,0
7.107214,194.908636,22521.424472,6.980183,333.108899,422.310959,14.049822,66.823341,4.008502,1
7.007255,194.043144,21961.94637,7.119041,333.887435,417.449813,13.975541,65.655333,3.958981,0
6.954906,195.68748,22551.113537,7.087669,338.186375,424.488282,14.448138,67.017937,3.878914,0
7.07838,196.085653,22681.930066,7.326168,331.885241,423.386501,14.131148,65.646088,4.038592,1
6.988068,197.408762,21690.744556,7.161145,333.308609,417.157572,14.380101,66.889332,3.92252,0
7.129142,195.90075,22032.033912,7.043516,330.3269,429.148439,14.431173,66.54484,4.010901,1
7.076287,195.760107,22759.710507,7.234683,331.52197,419.452445,14.132808,66.318123,4.06615,1
7.166162,195.645005,21919.085096,7.160664,331.993799,422.219773,14.305282,66.50743,3.995163,1
7.011396,197.575226,21559.000533,7.189977,336.018572,422.334142,13.931948,65.473397,4.003532,0
6.989584,195.214233,21084.976429,6.946887,331.383993,419.721111,14.650791,66.013707,3.873029,0
7.260904,189.077962,21391.162544,6.576866,356.622222,390.285266,14.391606,81.082456,4.383823,0
7.014574,196.726865,22203.189838,7.208376,334.17516,425.257367,14.181005,66.045301,4.020158,1
7.117383,194.969208,22097.091469,7.123098,330.905419,429.455664,14.064734,67.946015,3.979429,1
7.003722,194.241418,22215.491753,7.174188,332.12277,420.025807,14.294943,64.982098,3.985338,1
7.17384,199.052671,22699.470772,7.217935,335.054466,430.669548,14.230725,66.167513,3.958347,1
6.990202,194.499686,21872.441032,7.098582,335.513393,428.417663,14.382894,65.281812,3.95417,0
7.121251,192.146252,20708.776368,6.964137,331.252884,423.674916,14.49386,67.018306,3.941496,0
7.142745,197.647508,21454.279651,7.116753,329.456638,413.136996,14.286112,66.261855,3.994062,1
7.295141,182.406645,13706.186808,5.887885,300.608233,424.650179,18.06347,73.836909,5.056104,1
7.138051,196.654562,21985.620608,7.247849,337.166603,428.884363,14.458853,66.295935,4.021057,1
7.071379,195.258939,23171.366844,7.211692,329.497643,427.338389,14.323283,64.837318,3.974889,1
7.227162,196.842449,21572.132068,7.113584,332.150564,427.1343,14.505457,65.525301,3.922978,0
7.129432,196.255653,22153.056927,7.196977,333.408747,418.201147,13.999667,65.485101,3.978068,1
7.046338,197.719313,21835.033521,7.182747,335.516568,431.929022,14.314342,65.944712,3.975278,0
7.065957,198.732647,22826.330146,7.196523,334.303604,431.133544,14.069041,67.273307,3.962015,1
7.172364,196.844537,21826.910356,7.136393,333.41381,431.153546,14.472086,65.643285,4.063314,1
7.257484,197.825163,22598.131138,7.161702,331.674379,421.910801,14.450715,64.65698,4.0201,1
6.977752,196.881765,21651.943616,7.119776,334.04816,429.29798,14.174501,65.376564,3.986734,0
6.153369,237.139828,22052.034619,8.090494,306.23918,485.098483,17.075263,58.108259,4.030337,0
7.007278,198.097938,22356.114782,6.987236,333.894714,423.71102,14.322781,66.740984,3.957517,1
7.177576,197.689037,21490.5433,7.076892,336.148788,430.806624,14.41794,65.810983,3.964941,0
7.08041,195.450579,21183.2993,7.027417,335.7119,433.616917,14.166924,66.027722,3.922498,0
7.15734,196.419739,22624.093065,7.065374,327.770421,428.365245,14.280264,66.166662,3.942166,1
7.058805,192.953351,22679.353981,7.157054,331.009915,424.92392,14.298588,67.419357,3.997787,1
4.901907,141.930781,13614.750925,8.30696,368.618688,439.055356,9.921623,82.660165,4.103534,1
3.514546,158.732076,23029.663614,6.821679,286.522847,307.379142,9.712232,79.850929,3.762615,0
7.056205,197.781488,22918.727477,7.190914,333.791164,420.26878,14.068593,66.664303,3.939054,1
8.136498,184.231854,30031.839181,6.215307,373.652791,400.611899,15.288782,37.787097,4.204186,0
7.106517,199.559836,22596.439424,7.147489,333.301744,433.314375,14.447788,67.222423,4.041038,1
6.992349,198.542639,21150.736074,7.034848,335.586297,435.830679,14.467176,65.659895,3.955135,0
6.854733,193.872218,21454.357413,7.041548,332.278948,429.007112,14.167616,65.057313,3.998357,0
7.092123,196.291503,20988.601864,7.091279,331.997075,426.331223,14.48191,66.5242,3.981183,0
7.106129,195.2549,21490.154145,7.035616,332.949452,427.069952,14.239244,65.531416,3.889205,0
7.200653,195.29945,20487.080292,7.27289,331.743213,426.331594,14.077661,67.714536,3.968661,1
7.109729,196.030839,22379.77962,7.161519,332.65031,420.822962,14.32489,66.700381,3.976961,1
6.335683,164.070372,26594.352076,7.381256,338.429462,607.102573,14.92915,113.048886,4.578861,1
7.205289,198.406266,21261.267804,7.214145,326.840652,431.807433,14.324975,67.291709,4.012717,1
7.170588,195.327892,22721.349445,7.323253,333.906892,423.331025,14.393436,66.069249,3.957619,1
7.130784,195.332174,22111.341119,7.194106,328.539275,421.847865,14.441683,66.308562,3.923797,1
6.503638,163.256634,15000.187769,7.641834,334.10312,517.428392,17.53066,37.765518,4.963184,0
6.970248,197.041478,22827.614191,7.233473,333.454901,424.784119,14.058542,66.914424,3.928201,1
7.019924,195.521,21904.817586,7.03518,333.093063,420.678374,14.588476,67.563568,3.95903,0
7.0232,196.704232,22895.270929,7.218566,329.127558,421.358947,14.573007,66.575391,3.96293,1
8.195765,214.51761,10389.542538,6.295405,327.193898,403.189913,15.067042,72.756812,3.218709,1
6.513017,185.33854,26262.545482,6.74215,289.014348,410.101309,12.924653,83.65219,3.729961,0
7.080291,195.138832,20744.294962,7.222079,337.569358,424.422275,14.221217,66.083309,3.942955,0
6.994384,199.403711,21213.858814,6.96806,333.174405,437.116013,14.218412,67.084991,3.954226,0
7.057671,197.444861,22152.883695,7.144724,330.894633,420.419142,14.252273,66.19801,4.049142,1
5.77277,186.060603,26693.761607,5.80858,333.073364,312.869364,12.376272,32.761161,4.154685,1
7.120281,193.895375,22388.01158,7.007319,333.41796,427.910469,14.388091,67.388461,4.005798,1
6.996818,198.154275,21474.646456,7.15544,334.887446,425.493485,14.179576,65.348897,3.964132,0
10.887305,283.895864,15177.21819,4.656538,334.180833,420.607649,12.702489,72.102324,4.004161,0
7.021691,195.719335,22673.908041,7.118565,330.377073,428.882493,14.297574,65.996342,3.915496,0
6.039823,164.02634,9943.637599,7.723305,350.756261,374.794719,16.668446,65.542662,3.923766,0
7.042454,196.552806,22175.056919,7.162619,332.050457,427.27715,14.486231,67.248241,4.069369,1
6.927159,196.505957,21172.394848,7.063294,335.124145,428.219335,14.480484,66.269346,3.94502,0
7.150631,196.955428,21667.808202,7.345602,332.020574,423.789142,14.264658,65.964404,4.02267,1
7.024671,194.886547,22608.343604,7.216916,327.346242,422.83738,14.082698,67.241318,4.007467,1
7.170535,196.060216,21879.018792,7.149664,337.335046,428.063505,13.975409,67.691371,3.932285,1
7.187031,199.522246,22513.543585,7.182017,328.011534,426.820852,14.353054,66.866697,3.947619,1
7.058669,198.051464,21830.957472,7.094678,332.764505,428.560688,14.477074,65.892031,3.895274,0
7.030627,195.579103,22172.461314,7.207946,332.042323,430.560097,14.443152,66.650205,3.971196,1
7.105785,198.769025,22419.082449,7.069538,334.723003,424.491499,14.579465,66.149243,3.953085,0
7.092514,196.490258,23245.692437,7.202793,332.897171,419.796326,14.477699,66.517166,4.025873,1
7.204799,197.509381,22741.763346,7.043269,329.999298,425.69986,14.251705,65.158312,4.073168,1
6.572656,192.647334,14598.951913,6.164621,314.140056,343.895242,17.343806,53.08548,2.820927,1
7.047676,196.050821,21605.642684,6.971956,332.60231,425.196058,14.284952,65.860731,4.037238,1
7.005333,194.602691,22505.959925,7.361496,333.186429,430.604721,14.337562,65.417196,3.999339,1
7.138576,199.247249,22826.8099,7.275465,334.801058,423.908585,14.274894,66.581513,4.007246,1
9.609834,227.366949,22690.045871,5.38544,314.317481,394.731564,16.988356,75.339694,4.308358,1
7.05861,194.809994,21841.432818,7.174076,336.597472,426.970564,14.425648,67.069175,3.992179,0
7.071081,196.410257,22142.51108,7.161991,333.246364,425.614027,14.041165,65.335949,4.014107,1
7.022125,194.326127,22194.990148,7.113488,332.511191,431.474596,14.3078,66.436567,3.965186,0
7.047228,196.553076,22752.742586,7.265581,328.398783,427.815977,14.406271,66.775628,4.05373,1
7.101584,196.624075,22827.907265,7.097214,336.381994,425.480135,14.18152,66.977893,3.944541,1
7.007678,198.399656,21079.003912,7.100275,333.963062,423.987595,14.475485,65.22127,3.95224,0
7.105468,191.697246,22089.15766,7.050085,335.290402,428.504126,13.97567,66.182814,3.962743,1
7.047312,198.599026,22975.56992,7.104027,332.451822,423.016778,14.06826,67.081381,4.057805,1
6.964985,194.757106,22553.260077,7.030571,332.141653,422.445767,14.122847,66.931986,3.96014,1
7.106288,198.988631,22055.042613,7.136339,331.494096,429.805931,14.256457,67.055196,3.978889,1
7.115301,197.356722,22501.740646,7.139752,332.930382,420.976356,14.088032,67.124731,3.975103,1
7.266781,178.25771,27468.681707,6.043959,314.390628,400.624987,13.665328,87.131873,3.919827,1
7.128242,196.965664,22476.830344,6.984809,336.171645,432.64375,14.594117,66.492205,3.96445,0
7.067746,194.601419,22278.782713,7.335448,332.942919,419.345516,14.320531,66.585365,4.025646,1
6.896765,194.701388,22196.480257,7.018343,336.086899,426.362458,14.610471,67.317829,3.910391,0
4.88638,159.317972,38633.305169,8.370179,375.899169,448.050866,16.820615,59.18319,3.227849,1
7.095208,194.108626,21506.50936,7.145128,331.631846,429.210697,14.248097,66.227242,3.990567,0
6.910214,194.566959,21057.242638,7.061205,334.178352,422.850834,14.276598,66.272649,3.982037,0
7.151491,197.187849,22452.320058,7.214346,334.894518,427.570692,14.33523,68.615529,4.045046,1
7.209257,196.792036,21059.745011,7.077835,333.13017,425.259484,14.531199,67.059778,3.935038,0
7.126457,198.925251,22436.193797,7.14521,332.218437,428.813814,14.037004,66.282177,4.016663,1
6.948265,225.23176,6874.586016,10.116984,429.04562,386.582083,15.845193,59.474013,4.095612,1
7.013603,197.559607,21798.686564,6.978023,330.806228,419.188988,14.339026,65.908466,4.010524,1
7.174509,195.083448,22117.333833,7.29014,333.474996,423.707325,14.335354,66.387603,4.026379,1
7.139504,194.95775,22559.03357,7.213952,331.447271,420.64986,14.519546,65.894244,3.986798,1
7.071654,196.331846,22792.139929,7.10869,333.284985,426.753778,14.004012,67.133988,4.012182,1
7.173426,197.269118,21324.249473,7.082706,337.754565,424.842313,14.366627,66.439943,3.911937,0
7.246255,193.423587,22709.336326,7.191354,332.175944,428.940183,14.254874,66.205352,4.091905,1
7.114445,194.816552,22848.114895,7.070834,327.765102,427.802554,14.377309,67.596789,3.961173,1
7.099541,194.736161,21708.946238,7.154571,331.525328,424.188864,14.468925,66.981629,3.981461,1
7.100469,195.364254,21980.831765,7.016027,334.647549,432.521253,14.581635,67.082542,3.868183,0
7.070012,194.61446,21497.739754,7.156974,332.820437,424.548655,14.394591,66.70836,4.022889,0
7.147087,200.507447,22126.63829,7.227629,331.798785,425.073768,14.257846,65.670989,4.023038,1
7.022783,199.187755,22007.727746,6.947171,333.233031,440.389568,14.229879,64.829364,3.948876,0
7.022289,194.519353,21920.98421,7.139859,336.606135,424.711809,14.386281,65.914363,3.95037,1
7.069854,195.075312,21635.524894,7.348071,330.807636,418.947914,14.38587,65.535492,4.017172,1
7.132924,198.476311,22118.639353,7.253839,335.144178,423.222861,14.341303,65.319439,3.969019,1
7.201525,196.622631,22740.549327,7.008582,335.028091,429.341253,14.432629,65.629904,3.899413,0
7.004501,196.360681,22974.326965,7.061498,332.791969,421.418874,14.430875,68.065026,3.988689,1
6.989001,196.755169,21452.491575,7.075283,336.638004,421.003067,14.665532,66.768625,4.049986,0
6.792407,306.627481,28508.216929,6.811416,293.078305,306.115539,9.006143,60.912034,2.50565,1
7.386838,189.595814,29122.696997,8.420763,321.567764,458.044171,17.196943,56.769915,4.816705,0
7.010444,198.163674,21111.14329,7.128107,333.076325,432.597787,14.46269,65.840829,3.984421,0
7.152633,197.82071,21565.19804,7.116805,334.106848,428.531797,14.4578,66.029247,3.952755,0
7.169008,199.398022,21951.180522,7.164638,330.188519,420.220844,14.12657,67.024359,3.977661,1
7.152086,196.342516,21265.532655,7.017532,332.472842,437.0139,14.515647,67.23083,3.913485,0
7.055803,194.677955,22252.712965,7.211802,330.529433,421.534238,14.373768,67.29041,4.010563,1
7.00452,196.151259,22618.725146,7.150627,331.665329,426.008697,14.471915,67.363222,4.042086,1
7.093955,197.823824,21335.904951,7.119383,331.887851,425.894409,14.401773,66.519696,3.942225,0
7.095584,197.781433,21631.69498,6.999721,332.97707,422.287643,14.55019,66.201934,3.977082,0
7.619845,113.504698,37279.12895,6.36007,377.875193,285.349943,17.030429,48.92914,3.779648,0
6.367299,183.789491,11619.709697,6.035221,343.828015,362.775439,16.643696,73.259221,2.614766,0
7.010635,198.130262,22253.617516,7.016703,334.769345,426.643105,14.042215,67.643319,3.911934,1
6.985353,195.576117,22763.249232,7.177279,331.301127,424.919053,14.174231,67.611794,3.98938,1
7.195811,193.580406,21141.029588,7.16473,334.163788,428.019768,14.28281,67.594124,3.938034,0
6.023023,170.732289,10925.360104,8.200973,305.796529,508.851053,12.244622,62.967793,3.668089,0
3.691933,202.512068,9439.783993,10.343626,313.138886,543.685833,15.436185,65.205101,3.846607,0
7.114051,196.764572,21971.055402,7.339387,330.173793,418.522174,14.092766,65.999895,3.994729,1
7.144312,194.562215,22048.097484,7.018473,334.95297,413.833635,14.181281,67.417743,3.985737,0
7.147343,197.907975,21499.093988,7.123696,334.105146,423.481323,14.277704,64.876826,3.938711,0
7.049417,193.694635,22410.864507,7.156773,331.666029,418.726806,14.125309,65.69414,4.040978,1
7.05098,193.429084,22563.088504,7.371995,331.426815,428.597652,14.424666,67.281882,3.948589,1
7.070017,191.241606,22856.489122,6.987167,329.038188,426.945065,14.146877,66.966824,3.933757,1
7.186454,196.164991,22786.200499,7.214247,331.673771,426.834765,14.347695,67.793568,4.000843,1
6.966998,193.682457,22267.962638,7.252276,329.265147,420.843974,14.008213,67.49782,3.913282,1
6.010618,184.558582,15940.573271,8.165222,421.486089,314.529813,20.314617,83.707938,4.867287,1
7.016435,193.80049,21499.400279,7.039249,331.909915,427.10849,14.348998,65.199945,4.015003,0
7.111893,196.254242,21532.388727,7.12836,336.036444,429.619614,14.297397,66.111305,3.955811,0
6.933061,196.163911,20903.931837,7.080796,334.721346,431.650407,14.308344,65.632843,3.963582,0
7.06248,197.050536,23192.791084,7.227243,328.423275,420.965496,14.092992,66.914412,3.974837,1
7.071538,194.506655,21154.38531,7.045392,335.050228,428.772819,14.137444,66.942088,3.960091,0
6.643734,202.413638,14110.920968,8.75411,340.975559,291.084744,15.954655,64.363793,3.920607,1
7.077934,198.188434,22600.195599,7.15881,333.548239,433.314339,14.396729,66.701628,4.032044,1
7.082808,197.420122,22876.66769,7.164819,334.875975,423.827399,14.34399,67.396513,3.973811,1
7.148412,197.563804,21502.970423,7.071274,332.832877,426.158562,14.197857,66.697786,3.983995,0
7.178073,198.750801,21571.939322,7.197018,334.125305,429.809938,14.471108,64.963573,3.964211,0
9.462666,225.399307,12224.624604,2.981379,387.09872,485.697274,13.204394,62.297699,2.850184,0
7.480728,117.057314,28357.942774,4.702821,414.855784,472.059339,18.340212,76.344581,3.714875,0
6.185925,236.034783,1198.943699,6.140033,374.095388,436.236198,11.093811,99.775078,4.090264,1
7.164095,197.052009,22051.768172,7.140199,331.001497,434.290553,14.099518,66.594961,3.947045,1
5.842933,168.295287,19156.123132,6.878348,331.477649,506.756808,14.526151,80.423715,4.143225,0
7.014719,198.021506,21367.530982,6.976394,335.474154,421.877669,14.366434,66.612041,3.934238,0
7.417824,243.304691,320.942611,4.59867,336.097981,361.101769,20.421472,87.052576,3.470812,0
4.981672,220.950558,20988.087806,7.985668,232.548814,373.624878,12.235175,45.95003,4.475148,0
6.896436,193.727834,22177.607353,7.147825,332.866544,421.302,14.399871,66.936778,3.96479,0
7.003551,196.268562,22709.13029,7.219986,329.641782,423.961428,14.054344,66.903978,3.976626,1
7.775386,193.077168,15704.482093,7.881197,324.336203,301.753477,13.378165,89.051957,3.309472,0
6.987713,196.230066,22600.940323,7.259733,331.028896,430.598241,14.343183,67.90286,3.953667,1
7.106744,197.597903,22078.790761,7.229233,332.812514,424.859436,14.073307,66.758504,3.941058,1
7.049234,194.222098,22447.849223,7.007476,330.12049,416.108633,14.437472,67.751574,3.966385,1
7.946768,277.116946,24244.111963,7.561176,273.384311,306.837402,11.796235,70.019666,3.038483,0
7.166235,197.123569,22211.669446,7.319487,331.332371,426.310976,14.394482,66.971915,3.980261,1
7.121899,193.252497,21767.213761,6.998643,335.630004,431.732742,14.341547,65.641802,3.906668,0
7.143258,193.782957,21671.444332,7.191521,333.941217,425.477956,14.247308,67.883027,3.919594,1
7.121916,197.73203,21412.789706,7.192198,333.852365,429.918065,14.628811,64.97872,3.977461,0
4.692197,221.547773,24211.63077,9.36325,307.713996,406.551667,12.618252,60.003148,4.009006,0
8.129586,177.898967,27834.217696,9.006008,334.438539,397.021428,15.936262,81.390758,3.362537,0
9.608534,231.340228,4544.841718,6.577834,300.92233,328.904494,11.789619,78.568182,3.042797,0
7.082061,196.286162,22079.355924,7.057796,330.3414,426.389373,14.317106,66.147128,4.027459,0
6.984599,196.583019,20786.626593,7.055814,335.228259,429.99625,14.467398,65.790622,3.952477,0
6.930913,193.77783,21690.337269,7.130521,335.333994,437.693715,14.368597,66.352237,3.957304,0
7.021349,195.494357,22084.19992,7.1688,329.344771,429.43789,14.320577,68.625353,3.916403,1
7.162343,192.664581,23025.157829,7.03245,335.382461,421.796844,14.636865,66.535615,3.975852,1
7.131385,194.914399,21554.14122,6.925372,336.041967,424.451098,14.185403,66.249469,3.892938,0
6.898307,196.223681,21591.456816,7.118291,332.266256,431.485566,14.526032,65.893722,3.896877,0
7.081504,193.699766,23133.85679,7.302553,332.341924,426.945386,14.249339,66.585076,3.997161,1
6.090016,216.736232,12558.897973,9.2973,317.983236,409.427236,10.754842,30.965844,2.943522,0
8.532377,216.454108,30268.421272,6.29897,330.978466,436.164975,11.8957,55.921827,2.380088,0
6.856157,195.533885,21357.615831,7.065841,333.453333,432.261395,14.403471,66.042201,4.04866,0
7.122438,197.597177,22812.698658,7.146215,331.391106,427.720375,14.32553,67.918769,3.963722,1
6.405392,183.867245,20526.306835,8.450272,366.176634,548.637702,13.448797,69.054138,4.531921,1
7.174561,196.512773,22213.700623,6.944613,334.367786,420.887015,14.427075,66.581112,3.910034,0
6.992272,194.838566,21863.89507,7.156114,334.326522,432.26019,14.499386,65.672715,3.921162,0
7.077907,195.346188,22676.98412,7.090444,325.304244,426.12157,14.303564,67.017705,3.970765,1
7.042242,198.02007,21099.914565,7.078042,329.597082,416.934495,14.137726,66.659039,4.033782,0
7.196215,197.431915,22716.659206,7.243649,331.218498,428.910986,14.409093,68.390707,3.955146,1
7.169885,194.445297,21600.901712,6.995791,333.05211,435.833469,14.264212,66.304023,3.94716,0
6.939102,196.670851,21469.815013,7.086888,335.675426,433.483062,14.319964,65.036409,3.983073,0
6.979864,196.876039,21980.451175,7.170114,333.758184,427.334532,14.61288,68.238928,3.97726,1
7.002257,194.018774,20590.203447,7.082729,334.933029,425.581814,14.342651,66.035838,3.953447,0
7.113981,196.539884,21982.765578,7.164885,331.013746,428.328492,14.321533,65.225509,3.902383,1
7.004087,195.274757,21789.194611,7.168792,333.000682,422.547372,14.57729,66.919516,3.967509,0
8.014183,244.120098,30566.767504,7.714447,307.987458,309.930428,22.641598,61.578461,3.417076,1
6.983312,192.942702,21440.283488,7.144647,335.559274,431.281471,14.07732,66.341405,3.944363,0
7.476408,246.184719,27109.895609,9.791961,341.163631,339.729988,16.21768,77.603021,3.478194,0
4.252985,149.938655,20497.822225,3.271144,302.819823,427.113756,16.086949,68.200877,3.5883,0
6.888252,194.931813,21770.657307,7.216648,330.283625,426.753566,14.220828,66.782557,3.938212,1
7.158692,195.411532,21466.122773,7.000002,334.051341,424.727447,14.309965,65.385583,3.896303,0
7.319891,197.967921,22151.757284,7.185309,332.160174,427.750916,14.167076,66.353614,3.976721,1
7.206756,193.098721,21865.966796,7.101896,333.880475,426.773099,14.143287,65.5679,3.955178,0
7.16707,195.422004,21875.986416,7.114196,333.41035,425.801752,14.319711,67.310518,4.025308,1
7.083995,197.767834,22103.513977,6.983865,332.603661,425.519255,14.244269,67.451203,4.058247,1
6.920842,194.606397,21266.600126,6.907428,336.422602,422.426266,14.384466,65.633156,3.921176,0
10.817831,141.488391,23989.990151,7.962066,389.392897,361.632055,14.908725,57.164556,3.590841,0
7.020336,195.986203,21177.287002,7.061222,330.335306,419.758163,14.473841,67.134774,3.969758,0
7.099086,194.232789,22174.059293,7.237333,328.760696,421.951424,14.143148,66.286541,4.003949,1
7.108405,198.777343,22382.367721,7.314345,334.805578,422.700301,14.198788,65.852883,3.948165,1
7.194196,198.942493,22665.337392,7.139268,334.966254,428.497999,14.551807,65.141243,3.981725,1
7.893818,203.296621,16853.676328,7.334428,339.767579,398.9895,19.31876,58.57461,3.508504,0
6.963251,199.540167,22163.20703,7.215912,330.178091,428.788229,13.958126,66.289027,3.94479,1
7.1673,192.649126,21961.246575,7.044967,333.206399,422.752973,14.272282,66.710698,4.065916,1
7.160565,195.461183,21906.285959,7.190246,335.560794,423.720879,14.499645,65.618562,3.91511,0
5.608623,271.882219,43680.222521,4.157335,366.866533,450.896053,16.442753,61.249762,3.777508,1
7.15271,196.057512,21486.927909,7.078496,333.94391,423.519104,14.564202,65.979177,3.972504,0
7.050153,194.984677,21862.823552,7.205632,331.267078,430.865075,14.399847,66.797394,4.014853,1
6.242414,191.90873,28149.411792,7.130437,319.306785,448.242527,19.370091,60.939481,4.508705,0
6.940129,192.349993,21289.949833,6.988408,336.713814,420.410606,14.519991,65.240105,3.963654,0
6.571099,207.741025,23372.882654,6.280195,313.846972,497.90232,12.874805,75.41671,4.555949,0
7.135786,196.924258,21070.967653,7.06709,335.08365,429.34138,14.746646,64.23729,4.043087,0
7.139606,195.497993,22541.457168,7.057156,333.577605,427.604675,14.245079,66.661603,3.976918,0
10.164839,194.302801,28915.643224,7.301689,316.525209,279.165436,18.45231,63.062458,2.937686,0
7.172599,194.829732,23084.255344,7.232228,329.165321,430.235803,14.476203,66.229306,4.006382,1
8.756927,218.637759,21752.029713,6.454876,276.2781,356.075769,15.713149,67.049639,2.945672,1
7.187428,196.251398,22711.137028,7.07484,332.031227,424.263348,14.224664,67.559298,3.961532,1
7.19023,195.727562,22580.532693,7.317605,334.602671,427.060662,14.322519,66.386117,4.115907,1
9.166758,184.557434,21736.981799,12.227175,304.528521,317.583367,16.779566,51.052287,5.429266,1
7.216508,194.106238,21563.927093,7.060058,333.802307,428.254161,14.177798,66.37846,3.978389,1
7.031972,197.597755,21547.668109,7.197155,328.753803,425.222302,14.101035,67.201369,3.987605,1
7.031189,194.625725,21545.738111,7.149873,332.882888,424.894048,14.135286,66.613066,4.025783,1
7.054863,194.206909,21572.621765,7.105184,332.102507,425.875533,14.665371,65.35385,4.004073,0
9.925041,238.713393,10704.603182,6.110019,351.597423,405.900184,13.550367,59.462669,4.703803,0
7.193696,195.963996,22022.853337,7.104221,333.454489,421.094591,14.238608,66.330298,3.876027,0
4.495358,234.191916,14080.833709,6.340682,296.31422,382.408074,17.353545,59.004349,4.9629,0
7.040405,199.851133,22626.878136,7.099363,335.9574,423.501852,14.131,66.532441,3.971849,1
7.202568,196.718965,22640.838339,7.146108,329.48463,422.689045,14.254101,66.076147,4.058032,1
7.129874,193.853778,22623.596591,6.994792,333.731453,428.665973,14.403608,67.360772,3.909612,1
5.636924,159.13941,27283.780655,6.918727,328.907287,317.830981,13.611408,36.335199,3.007138,1
7.103406,195.856473,22154.758303,6.998119,328.730057,430.823695,14.128425,65.912513,3.973968,1
7.159494,196.323186,21513.87142,7.115751,333.423491,424.356688,14.437352,66.043755,3.958416,0
6.549125,194.276857,7412.798059,5.83698,354.821194,361.037238,11.672191,57.316977,4.421059,1
3.623166,156.898917,26738.525361,5.023143,388.752253,388.75262,17.196012,63.56487,5.370206,1
7.240215,194.402268,22097.664784,7.145042,334.406169,425.873195,14.186631,66.025547,3.996903,1
7.109527,195.382324,22143.020714,7.20952,333.062657,427.266133,14.285279,65.465521,3.969923,0
7.036583,198.987392,21623.355817,7.309391,332.822442,423.913081,14.662487,65.60212,3.97927,0
7.074704,197.26063,22150.594884,7.150832,334.0902,435.355801,14.458149,65.451367,3.956317,0
7.106462,193.080744,21717.709021,7.077833,332.825701,427.870498,14.49702,67.14655,4.046901,1
7.098545,196.492076,22697.554428,7.004643,332.857722,422.357316,14.346023,66.981305,3.987845,1
7.094986,197.464982,21827.993138,7.140616,332.214011,430.961101,14.231234,66.89812,3.946136,0
9.152285,229.540413,24560.700606,7.042326,372.694465,395.404362,14.253308,40.974355,3.792777,0
7.045027,193.432868,21450.716018,7.007238,335.839978,433.652436,14.250406,66.951787,3.945893,0
7.175375,197.542076,22586.778743,7.206682,335.245924,429.658512,14.361101,67.304545,4.045148,1
7.180991,194.729384,21815.892112,7.037601,332.456398,421.674242,14.183429,66.506699,3.897082,0
6.990308,194.84773,21789.382473,7.173777,335.036596,424.854642,14.668832,67.680722,3.931704,0
7.226213,195.256131,21892.516676,7.293811,332.146626,426.192894,14.610255,68.228564,4.036684,1
7.093512,193.686787,21827.702814,7.132431,324.984529,428.764293,14.297799,66.574195,3.968642,1
7.048963,195.288608,23110.153747,7.251252,330.177669,427.515648,14.509706,68.602078,4.029583,1
4.709187,179.141018,22291.418577,6.774276,407.417977,371.264843,18.186801,86.528627,3.860084,0
6.990444,195.895527,22212.369628,7.204262,331.96802,423.804379,14.282612,66.81754,3.96593,1
6.981295,195.89612,21478.2955,6.981184,333.976734,430.805689,14.209493,66.045354,4.023068,0
6.978996,195.514087,21506.511282,7.105731,334.901583,427.057324,14.504283,64.992535,3.917716,0
7.05366,195.417723,21791.482252,7.215663,334.747961,425.036555,14.410067,66.741625,3.934883,0
7.187896,196.251552,22427.504847,7.231296,334.427183,428.351915,14.678826,66.535086,4.023303,1
7.104938,195.009978,21274.556233,7.175194,332.295984,419.962007,14.339463,67.053317,4.016196,1
7.155945,195.27883,23031.964827,7.176924,332.482088,425.01295,14.429539,65.460651,3.995371,1
7.061615,194.483901,22437.191325,7.0595,332.810991,425.05011,14.50908,67.93498,4.003687,1
7.156737,196.109585,21458.038663,7.058441,333.046893,431.531552,14.477686,65.790336,3.960168,0
7.086885,196.570732,22461.758288,7.339057,329.718515,422.881389,14.424988,67.233297,3.988967,1
7.043097,195.151146,21074.105199,7.198062,337.072252,425.026597,14.448746,65.685453,3.94302,0
7.182936,196.659077,22038.399481,7.021574,331.104364,424.391286,14.3227,67.150391,3.980348,1
5.974583,197.102725,22543.256292,5.662657,338.357526,410.804132,11.16909,59.826439,3.721975,1
7.135244,198.082638,21529.247363,7.086938,334.980163,421.128956,14.479036,66.064091,4.003985,0
7.146275,197.603766,21909.847578,7.29139,333.247827,428.330789,14.175503,68.347887,3.938407,1
6.94012,194.704855,21912.653066,7.186478,331.961426,429.329741,14.392236,66.705615,3.970491,1
7.223774,197.696409,22510.311222,7.204867,333.095053,431.438155,14.011803,67.364528,4.02262,1
7.124319,195.191073,22097.196141,7.140757,332.098315,421.145759,14.222553,65.771838,3.986056,1
7.152193,196.8741,21996.263275,7.197358,335.257558,425.552567,14.420882,66.108038,3.940178,0
7.002366,196.679536,21240.91845,7.1533,335.641126,430.980886,14.400425,65.553827,3.884069,0
7.070431,192.180097,22174.381339,7.065088,333.941548,425.792581,14.209906,66.328681,4.033606,1
7.028516,197.045288,21466.621488,7.076215,333.729994,423.0925,14.324365,65.535175,3.938248,0
7.184973,201.079219,25234.427972,5.216684,283.744612,384.011558,12.427538,23.136611,3.665411,0
7.120598,196.724964,22735.467837,7.02326,333.051649,422.345308,14.305914,65.707211,3.986037,1
7.146775,199.135127,22370.58652,7.254993,335.640354,425.685113,14.542722,67.115626,3.979198,1
7.013183,194.379045,22676.854359,7.136931,333.502835,420.213448,14.287815,66.674957,4.068174,1
6.823026,198.439909,21624.884943,7.179572,332.03176,423.538948,14.439397,65.850523,4.000065,0
7.169954,193.183075,21799.163711,7.088129,333.034466,424.577746,14.060263,65.847589,4.001199,1
7.02667,200.056279,21535.016819,7.207416,335.361573,431.029139,14.276374,66.659456,3.953205,0
7.120254,194.096062,22009.107429,7.212332,332.048917,426.880213,14.402123,65.85858,4.056654,1
7.183565,195.572932,22352.528266,6.985932,332.95423,433.658839,14.708082,67.887577,3.982634,0
7.788055,212.691457,29879.060146,6.998962,360.668259,359.569082,14.828743,83.856336,3.368757,1
5.896432,165.135658,23022.168945,7.536806,356.756191,401.740921,18.363573,80.124746,4.280793,1
7.112448,194.81933,22681.191493,7.180968,331.888304,426.562957,14.336892,65.998383,3.905631,1
7.114459,194.169834,21789.453492,6.953926,332.721042,430.359163,14.152465,66.048609,3.983471,0
7.104723,194.946787,22273.473606,7.058473,331.435387,433.071626,14.33602,66.368028,3.984698,0
6.604008,212.978467,23564.579663,6.608205,325.35386,430.332754,14.352905,33.403048,4.458967,0
11.568768,192.924448,39234.470184,8.860762,235.995461,463.435102,19.628177,81.496529,3.761288,0
8.815358,208.331084,26780.691787,7.223962,329.119685,430.406894,7.151751,88.413296,2.87588,0
9.158445,186.672973,15797.030396,8.151081,333.812264,425.752018,12.182639,112.622733,4.525237,1
9.347345,201.632836,13749.596037,7.333742,322.044667,512.446305,12.434716,43.827119,3.615151,0
7.070752,196.421661,20758.57127,7.067438,336.422643,433.646866,14.650452,65.300225,3.968859,0
8.167793,200.913755,27141.362903,7.262417,344.161134,525.598788,16.142284,66.231436,4.289395,0
6.932504,199.209747,21613.77991,7.113768,327.852267,425.3338,14.274648,67.396662,4.010936,1
7.160766,195.698772,20697.684709,7.075038,333.899555,421.879199,14.516405,66.444601,3.931593,0
7.122115,194.939168,22139.457487,7.05584,332.909711,426.819908,14.16653,66.53482,4.007798,1
7.120445,196.232354,21667.751666,7.015177,334.231559,425.888113,14.55623,67.123835,3.96801,0
7.117695,195.577553,22380.332813,7.062979,334.789123,424.18402,14.365839,65.939202,3.988473,1
7.144551,195.54565,22447.784799,7.275379,333.622317,432.159148,14.271027,65.442394,4.014197,1
7.090027,194.787862,22208.886851,7.06762,335.01684,421.761259,14.348683,67.770173,3.988877,1
6.964361,196.346115,21537.828054,7.064024,333.638028,426.251109,14.446173,66.853067,4.009118,0
7.134399,195.388622,22917.681922,7.099236,332.402416,416.429474,14.215927,66.582773,3.963257,1
7.140751,195.197069,21743.858323,7.156391,334.14651,432.670587,14.122247,66.767041,3.900044,0
7.147408,195.867027,21188.546574,7.135524,332.545559,430.165845,14.427721,65.337,3.991028,0
7.154405,196.347384,21430.125337,7.185467,332.460643,426.558718,14.435859,66.159684,3.901038,0
7.00523,219.921997,26597.586447,7.351021,333.583723,379.598806,13.284691,98.965389,3.589866,0
7.019627,193.830326,22258.96629,7.222078,335.245712,430.056459,14.407308,65.711292,4.01764,0
6.977226,196.330612,20585.096645,7.071743,335.784713,428.219243,14.269723,65.414258,3.915257,0
8.323982,262.218585,21292.828755,7.076944,350.325736,538.792267,17.684655,72.343812,4.153783,1
7.055988,195.194347,22052.945581,7.226117,334.923454,425.189712,14.328696,67.100333,3.988357,1
7.044814,196.53309,22271.217499,7.085266,330.055848,420.50624,14.257545,66.208437,3.99405,1
7.312655,195.942185,21975.30912,7.190112,334.533668,425.697635,14.490241,66.923837,3.949019,1
7.13127,194.095327,21583.21182,7.083609,334.817272,430.223487,14.245317,66.171901,3.995299,0
7.199273,194.909967,21784.059794,7.207524,333.823412,424.686688,14.105632,65.360418,4.04001,1
7.068995,199.865817,21066.690404,7.096836,333.269828,431.037933,14.648265,65.61047,4.013614,0
7.116138,193.272337,21731.997638,7.218236,333.255261,428.176234,14.160076,65.79561,3.990641,0
8.468694,151.954301,19148.224744,11.930448,390.807361,374.99469,9.90173,70.269959,4.375599,1
6.996517,197.200106,22219.478213,7.087266,336.276008,428.422903,14.31133,64.29234,3.975457,0
7.017838,193.559762,22304.182828,7.213634,333.611754,433.796946,14.231855,66.103535,3.98417,1
7.201714,197.360642,23416.050445,7.14651,329.517019,425.065004,14.210309,66.928984,3.974044,1
7.007474,197.028667,22511.262742,7.142511,332.669504,427.254461,14.375885,67.325603,4.051533,1
7.171478,194.260669,22434.768433,7.116295,330.026922,423.345341,14.314416,67.792977,3.959582,1
7.142269,193.955864,22850.147746,7.123134,334.060957,426.410528,14.315785,67.922117,4.023428,1
7.119349,196.224729,21204.548511,7.140583,332.624702,431.956261,14.152436,65.892974,3.925346,0
7.151021,194.569333,22464.948967,7.177468,333.4776,429.30625,14.401383,66.074786,3.968119,1
7.111407,196.026674,22268.103387,7.098754,332.596676,425.619218,14.24714,67.145351,4.00533,1
7.143285,199.289458,21060.148657,7.023462,334.177001,432.673394,14.30529,66.104604,3.952882,0
7.058313,198.002627,22372.527831,7.307289,329.982021,418.914724,14.365955,65.882582,4.024849,1
7.127284,195.035077,23311.58257,7.229091,333.592289,426.520192,14.623237,67.801791,4.025763,1
7.296573,197.646951,22535.085158,9.2882,323.449054,353.062907,6.039669,82.536173,4.679169,1
7.211853,195.991132,22220.957435,7.225561,330.636963,428.021391,14.362535,66.242845,4.027896,1
6.703487,182.129514,24316.875146,7.009806,341.333952,479.537497,20.088643,53.925045,4.223884,0
7.148689,198.573798,22645.405461,7.14827,335.963421,426.306212,14.326741,66.763989,4.028002,1
7.012653,194.869384,21429.61111,7.076178,335.462826,430.40321,14.599772,66.366426,3.988163,0
8.640886,201.568724,26473.713239,6.967095,352.306586,309.983287,17.665083,68.664923,5.263102,0
7.255135,196.443023,22170.024278,7.119159,336.289012,430.043586,14.349288,65.824714,3.970987,0
7.1338,196.20233,21893.147158,7.040916,334.372794,431.76214,14.407376,64.903608,3.970118,0
7.098027,194.34409,22142.033582,7.14166,328.738914,428.025403,14.370152,65.795834,4.02678,1
7.032988,196.571302,22139.895385,7.068837,335.979253,424.929827,14.239145,66.377721,3.92657,0
7.0528,195.441503,22291.797935,7.000942,333.34442,433.630066,14.491825,66.763537,3.89755,0
6.99025,194.392897,21993.103624,7.156,337.651259,420.304684,14.445901,65.90717,3.994392,0
7.120374,196.248681,22140.49786,7.116632,334.423385,425.580385,14.426685,65.8301,3.97551,0
6.977572,194.969356,21405.704501,7.104124,334.460971,421.269315,14.309516,66.950117,3.992971,0
7.060824,197.355056,21942.583649,7.223938,335.70156,422.597228,14.480254,65.876953,4.029321,1
7.163388,193.837548,22543.372735,7.337766,335.257795,424.915546,14.115716,67.818654,3.989119,1
7.14319,193.899713,22212.782766,7.194608,335.2018,417.144973,14.427797,67.205606,4.021538,1
7.021728,195.80302,22962.729708,7.015689,331.967287,431.761766,14.314268,65.718267,3.932083,0
9.097617,263.82412,38413.05709,7.634362,274.959028,437.263531,18.285882,74.512565,5.473663,1
7.028532,195.587525,22912.216117,7.18206,333.374089,421.242225,13.808011,66.287989,3.99327,1
5.226942,177.319603,28398.554196,6.294517,336.292918,328.38743,18.463095,62.075902,2.25955,0
7.08786,197.652421,20932.993874,7.123273,335.434217,429.834665,14.286924,65.855897,3.975765,1
7.095733,194.013208,21479.843111,7.184891,331.169908,425.247836,14.217433,66.276666,3.99468,0
7.204528,196.180446,22090.379617,7.193864,331.482275,421.753499,14.198388,66.833862,3.992725,1
7.082716,197.058568,21755.897101,7.109995,332.188199,431.451187,14.448854,66.084951,3.933263,0
7.105596,196.02226,21675.782052,7.063076,334.402488,429.406881,14.386562,65.973082,3.90296,0
7.109609,194.729186,22700.79199,7.153571,333.098722,430.951489,14.323481,67.796269,4.051323,1
7.105609,195.884069,22763.293461,7.343084,333.344651,424.004979,14.110242,65.730751,4.039557,1
9.871791,114.37145,27912.908263,8.660269,340.046298,490.451835,8.517762,64.831248,3.652264,0
7.124775,192.659214,22529.178269,7.184715,328.342603,425.304845,14.426366,64.576558,4.010421,1
7.228709,196.52778,21952.182241,7.192675,331.927781,428.093677,14.473443,67.699439,3.98651,1
7.042813,193.792436,21861.576808,7.114366,331.613312,434.420574,14.330107,65.769127,3.94556,0
7.25747,200.185457,22856.244628,7.101469,331.535225,427.564959,14.403699,65.991017,3.96254,1
7.091685,195.845203,21966.303387,7.20213,337.919611,426.844086,13.978249,65.337682,3.998942,1
7.143056,194.071052,22716.176847,7.157911,333.546517,425.083976,14.265853,66.111092,4.037802,1
7.104633,199.482978,22202.391494,7.177681,332.271072,418.767988,14.250585,67.556606,3.933933,1
6.951753,194.170798,21766.369331,7.017047,331.421044,423.862162,14.361117,66.534409,3.923366,0
7.052455,198.972952,21982.928627,6.867602,335.901665,431.568951,14.64342,66.675682,3.9785,0
7.200438,195.317265,21755.362557,7.067691,331.47614,428.295966,14.514818,66.918905,3.990206,0
7.131494,195.632641,21600.503864,7.079625,328.889963,432.447866,14.5417,65.099987,3.919608,0
7.082905,196.778922,22130.315673,7.111441,330.94385,425.284221,14.383979,66.852131,3.95784,1
7.152317,195.095102,22696.411732,7.059015,331.74127,423.481177,14.41423,66.571911,4.036695,1
7.000687,194.604532,23069.213727,7.124639,333.560287,423.065674,14.551292,68.248733,4.041747,1
7.224092,195.457851,21670.705023,7.30007,332.888732,423.019615,14.310545,67.30622,3.993903,1
7.008307,196.042208,21960.769082,7.160089,333.081443,414.258194,14.445045,65.685914,3.937597,0
7.005408,196.577495,22538.46317,7.160036,334.437982,422.239366,14.022599,67.82728,3.941276,1
7.089453,196.936353,22066.301893,7.163862,334.178945,427.898982,14.1875,66.013413,4.002278,1
10.577931,278.03636,28652.143304,2.785718,379.277495,334.211669,15.011893,65.199878,3.051608,0
7.159775,194.594971,22044.53196,7.070763,333.791126,425.323052,14.197196,67.88583,4.038051,1
6.992812,193.295218,21284.401404,7.091121,334.228976,432.07615,14.52453,67.018761,4.098877,0
6.991352,197.090548,21609.12184,7.141457,334.664499,425.496645,14.657038,66.36264,3.987695,0
7.130333,196.086183,21418.757037,7.232652,336.565162,426.712321,14.402834,65.327713,3.975743,0
6.207433,192.937027,13442.603471,5.819023,325.906562,533.795851,14.687539,60.485033,3.549299,0
8.272055,204.225329,24196.522679,8.448405,332.890382,500.684873,15.157408,71.022744,5.140208,0
7.059654,199.514392,22415.492752,7.009849,333.886103,426.865001,14.19229,67.172965,3.981876,1
7.080328,197.520839,22343.886759,7.281426,334.536683,426.143432,13.918178,65.106876,3.997439,1
7.130677,195.507733,22618.908811,7.138564,333.838347,425.064224,14.269597,66.868411,3.996967,1
7.15869,195.270773,21873.052904,7.169376,336.309894,420.457898,14.290474,65.842522,4.056892,1
7.161423,195.003616,22837.394956,7.268637,328.980211,422.635369,14.238266,66.175073,3.942992,1
7.052029,199.243587,21274.001573,7.131383,333.49467,423.493523,14.342837,66.288749,3.988349,0
6.996523,196.662553,21499.504658,7.338145,333.869389,423.34923,14.365835,66.777591,3.976797,1
7.071359,196.54184,21410.463958,7.112726,334.984038,428.879213,14.676317,66.112383,3.897403,0
7.052265,192.808793,21733.054894,7.020465,334.184867,426.22566,14.434077,65.996764,3.998602,0
7.080372,195.390557,22865.217029,7.385889,332.763501,425.650323,14.424065,67.043772,4.001939,1
7.031901,198.897925,22411.081719,7.054114,333.751017,421.634768,14.461224,64.987678,3.951769,0
7.109915,196.294659,21776.067041,7.019233,334.042955,428.778512,14.320939,65.227495,3.979009,0
7.012037,195.88373,22430.641426,7.230917,337.350976,435.198746,14.396175,66.739953,3.965253,0
7.107212,198.614209,21896.935943,7.169025,333.596176,425.073095,14.218659,65.783623,3.983835,1
7.130231,193.794177,21934.000903,7.146319,333.475802,430.816669,14.395724,66.001584,3.973054,0
5.188777,178.993269,22648.237553,6.318063,326.467898,404.561129,18.840383,89.914438,3.769504,1
6.994614,196.410867,20591.786626,7.069936,333.16867,425.520636,14.656962,65.90617,3.960965,0
7.146816,197.095346,23061.090373,6.94164,332.891147,426.961021,14.286879,66.949541,3.996801,1
7.161011,195.790796,22265.888209,7.194399,329.781165,418.22156,14.225494,66.358227,4.018976,1
6.854947,149.853487,16203.090697,5.734804,375.71866,350.344708,11.718895,75.498737,4.938999,0
7.045088,195.345456,22022.217784,7.181442,333.813342,425.7438,14.534559,65.587895,3.941245,0
7.081307,195.844268,21624.013105,7.006015,332.247157,435.18294,14.272679,66.076017,3.98554,0
7.162905,195.544425,22629.84122,7.32137,334.749332,425.03501,14.230673,67.529214,3.978857,1
6.966043,194.118411,22443.453105,7.185311,331.462561,428.254803,14.045067,66.021092,3.996148,0
7.142902,196.983154,20857.712224,7.016428,335.826264,420.903574,14.584811,66.16646,3.976722,0
7.075965,197.764632,21899.482487,7.102135,336.047838,423.71337,14.454859,67.644332,3.939479,0
7.076011,193.914293,22021.652557,7.194924,334.408498,427.374338,14.604296,66.286668,3.968792,0
5.085429,173.565971,33455.240995,6.033247,351.271267,507.476249,17.795957,62.466135,3.961731,1
7.147142,194.55669,21862.901706,7.065486,332.741562,420.123123,14.515942,68.477946,4.014543,1
6.932261,196.623496,22017.783183,7.166264,330.961932,435.623366,14.052436,65.763927,3.933612,0
7.07116,196.963775,21876.007576,7.031982,334.277675,428.854381,14.465419,65.93796,3.944949,0
7.039945,197.681988,21957.87349,7.153057,332.562217,427.872361,14.159973,66.531528,3.927434,0
7.0868,197.032346,22656.704895,7.074961,330.05941,423.560676,14.215649,66.128973,4.06145,1
7.171316,196.668591,21790.696265,7.263894,332.467193,426.13406,14.641652,65.550459,4.060348,1
7.169095,194.121127,21293.175394,7.045204,333.735444,433.950119,14.548617,67.677897,3.982069,0
4.959853,215.854869,9887.830755,6.954231,379.504731,527.479694,14.326638,52.388849,3.455045,1
6.90144,197.183307,21688.178754,7.18331,333.869987,435.83299,14.363366,65.846085,3.895929,0
4.666148,171.2887,35680.067877,4.894374,314.613851,501.902864,14.210624,56.910254,4.556864,1
7.131658,196.616269,21782.759477,7.159294,335.207578,431.62047,14.633092,65.06868,3.969208,0
7.670506,123.336644,33843.619447,5.216369,390.745825,462.967639,18.69873,82.904657,3.933826,0
5.158396,189.295789,35086.396963,6.736118,340.871819,331.586726,12.909798,61.344664,4.645852,0
7.018441,196.607104,20800.644424,7.102786,333.229649,434.239606,14.407324,67.809601,3.932332,0
7.101346,199.243112,21753.435487,7.152249,333.023142,431.652567,14.286735,65.614684,3.998965,1
6.532097,163.396241,8240.812709,6.641543,402.836817,601.032982,17.896128,55.022407,4.599324,0
6.998886,194.163135,21830.755383,7.11703,332.286581,440.230562,14.174269,67.719532,4.000934,0
6.941468,193.028832,21638.811053,7.179815,333.533428,430.992699,14.484174,65.336322,3.956243,0
5.85969,163.496895,19231.03329,6.541681,339.37148,468.376955,19.749079,61.79098,2.747333,0
7.028068,195.674919,21469.618245,7.116141,334.061841,429.337468,14.443727,66.311302,3.904863,0
7.180366,193.742881,21220.258674,7.11039,337.226149,436.501381,14.53553,67.09029,3.903175,0
7.027509,195.211859,22113.433732,7.114777,333.207828,426.318603,14.481309,65.137885,3.891914,0
6.996789,193.001727,21261.137394,7.010696,332.41629,430.008658,14.210625,66.841132,3.920665,0
7.291319,196.504856,21013.310653,6.942225,332.136694,429.455456,14.414472,66.39083,4.075508,0
7.05068,194.627534,22030.549559,7.133395,330.066936,422.458035,14.303087,65.197553,3.921734,0
7.083539,192.779377,22034.415852,7.204138,332.728997,424.882868,14.236125,65.826044,4.008866,1
7.118579,197.346222,21524.621796,7.087933,331.889839,437.214726,14.16163,66.704278,3.943434,0
7.12657,194.396296,22866.598149,7.038006,330.370874,418.966772,14.49641,68.763585,3.975543,1
7.032263,192.487485,21687.856672,7.0655,331.578854,430.436713,14.557436,65.92945,3.933648,0
6.925358,195.016027,21879.924895,7.004527,331.845036,421.924919,14.327285,66.853453,3.994368,0
7.121476,196.299771,22674.745553,7.221729,331.724255,422.881412,14.536908,67.060983,4.006273,1
7.05356,196.171938,21916.354588,6.968808,334.847495,426.21691,14.28672,67.077417,4.010001,0
7.146117,181.434419,33266.571575,8.381738,373.197146,485.109215,15.46998,52.812932,4.775202,0
7.015335,192.108405,22094.844763,7.081619,331.466348,423.467835,14.251249,66.524995,4.047168,1
5.808976,157.552238,7965.207918,6.680188,262.995756,377.697283,17.401039,69.461111,3.599933,1
7.274757,195.11803,21496.745136,6.57109,360.697815,418.373582,11.382543,81.235608,4.271581,0
7.159247,196.766752,21405.453394,7.186644,334.651555,431.099526,14.500053,65.67437,3.93773,0
7.098804,198.223957,21919.736935,7.208868,337.326731,426.383923,14.50391,65.080767,3.988707,0
7.081485,196.667772,23315.084344,7.162147,332.250575,425.651084,14.430367,67.367628,4.031085,1
6.942161,197.22666,21139.455544,7.066708,334.844914,430.29163,14.192029,67.896551,3.911426,0
6.992622,195.67258,22785.258749,7.048669,329.158794,423.400585,14.287388,66.030037,3.991146,1
7.227123,196.437437,21858.00001,7.205055,335.33455,422.404442,14.184298,65.858426,3.986622,1
7.043945,193.21538,21667.754949,6.989049,331.884754,418.613172,14.482775,66.277481,3.984523,0
7.100234,197.040139,22527.271373,7.139452,327.821794,432.858953,14.425624,65.560813,3.905087,1
7.17985,195.754121,22355.430814,7.296678,329.999022,423.523125,14.38025,65.638202,4.073622,1
7.024113,195.266918,21352.021435,7.145729,337.776817,424.517421,14.615171,66.802488,3.986997,0
7.101105,197.162379,22492.325346,7.11777,333.697877,421.725875,14.301902,66.678832,3.98874,1
7.137467,196.043707,21759.86151,7.045658,333.307231,422.87542,14.307315,67.551773,4.00328,1
7.141944,196.617297,21353.773212,7.099829,332.656218,425.108841,14.579522,66.24763,3.966707,0
7.165254,196.719691,21857.148174,7.117682,333.398825,428.030356,14.270161,66.513344,4.017202,1
7.198851,194.632993,22462.10747,7.25512,328.14678,432.690945,14.338587,67.18536,4.022675,1
7.096912,193.948986,22144.032807,7.102,331.244715,424.769841,14.439311,66.011864,4.013821,1
4.405327,169.742537,15039.710406,6.308198,352.917733,424.251162,14.441754,79.169597,4.086867,0
7.139892,197.023267,21932.932488,7.182519,333.444426,419.777246,14.270143,67.094146,4.060742,1
7.18341,191.572269,22896.747399,7.155286,333.803552,428.207534,14.436232,66.982625,4.027109,1
7.074747,195.451305,22090.232828,7.157843,332.67405,426.851122,14.187419,67.102742,3.971436,1
6.658834,182.389559,16828.880597,7.071299,355.89689,434.658981,16.618053,69.412284,3.96974,1
7.047309,194.490283,21612.124447,7.244409,332.91535,430.308133,14.53918,67.332728,4.060036,1
4.229225,207.669229,21214.370515,6.844548,304.275125,488.455862,13.489424,65.30757,3.73314,0
7.106512,196.476392,22386.403386,7.320544,334.563486,422.988939,14.364975,66.240812,3.973359,1
7.147462,192.100673,22985.340169,7.039564,331.815991,422.160096,14.380826,67.765524,3.978319,1
7.044129,197.297443,21868.805998,7.192993,331.262615,427.643435,13.913104,66.926359,4.000124,1
7.032091,195.730207,21383.90968,7.059988,336.668245,423.949044,14.486594,65.986804,3.937452,0
4.835298,136.295037,23031.215807,5.560179,358.933089,567.46367,11.505803,60.773857,3.633761,0
7.125211,209.746771,16701.565975,7.458741,320.500945,404.704596,18.952797,92.347375,3.908075,1
7.056616,196.207873,21990.38525,7.084982,332.771781,424.404706,14.536492,66.060943,4.063029,1
7.147879,196.412313,22589.02077,7.13854,327.949385,420.859218,14.341841,66.999316,3.973396,1
7.281683,193.744788,21102.539596,7.138236,336.368245,420.22393,14.350053,67.770508,3.952147,0
7.122714,198.142766,22109.160235,7.068178,334.956711,427.469442,14.213587,64.144205,4.006015,0
7.119743,196.009698,22850.115987,7.334202,333.905391,425.021319,14.260167,67.615182,4.004985,1
7.086677,196.54833,21023.021286,7.087498,332.566386,428.024519,14.312533,66.576586,3.938537,0
7.974065,160.224182,29477.764399,2.456014,324.055592,371.211951,18.693915,54.280624,4.069087,0
7.176405,193.197538,22849.234364,7.162898,332.014796,426.204987,14.271444,66.891691,4.055936,1
7.067079,196.864848,22043.62022,7.082214,332.768662,425.101475,14.285795,66.379178,3.932574,0
7.057093,195.620274,22501.693434,7.18669,330.768333,422.405547,14.458515,67.296154,3.948676,1
7.092266,193.504201,22158.785087,7.214547,330.134876,417.76037,13.908546,67.001266,3.974983,1
7.146839,194.933618,22316.214182,7.184523,331.294484,423.128296,14.300593,65.671659,4.036611,1
7.248721,192.81437,22430.096063,7.201336,332.466692,421.839471,14.631577,67.251882,3.993703,1
6.989837,197.498735,21729.423791,7.235734,332.646978,425.117493,14.466984,65.400649,3.965857,0
6.975296,198.021698,22393.441842,7.103062,332.177645,434.202787,14.239832,66.194274,3.897557,0
6.960521,195.286443,21646.924987,7.025392,334.546887,426.667483,14.411758,66.305469,3.851751,0
7.037675,196.620833,21490.544013,7.175596,334.93225,427.354537,14.240158,67.4335,3.98434,0
7.151035,196.018752,22421.084128,7.222056,330.946087,427.81313,14.484306,67.752925,3.976255,1
7.066259,195.556412,21732.287801,7.149533,334.295914,424.258885,14.642608,65.648309,3.99838,0
7.11618,195.338867,21515.606303,7.115997,333.99262,420.406373,14.673341,66.647991,3.927035,0
7.119612,196.036533,22257.629245,7.298161,333.535458,430.08905,14.267975,66.984299,3.925863,1
6.960772,193.177882,21364.105594,6.967395,332.248513,424.423818,14.461118,65.734162,3.960017,0
7.086907,197.00778,21296.85487,6.888237,330.76805,426.123315,14.506289,67.135955,3.948577,0
7.037247,192.555675,21664.66306,7.101812,334.866135,426.999717,14.367172,66.297085,3.920498,0
7.094761,197.397252,22242.669463,7.124772,333.273063,426.644397,14.092172,66.966579,3.982049,0
5.963479,223.031638,24435.64208,6.221292,305.947012,284.497026,15.188557,40.142705,3.727813,0
7.065253,196.567379,23461.128153,7.096031,331.47744,422.500026,14.463687,65.949387,4.006837,1
7.198391,195.277436,22425.037923,7.178325,331.737042,422.966001,14.154586,65.852804,4.019506,1
7.082895,195.713028,21530.044795,6.900723,333.322327,423.040502,14.391039,67.500646,4.025111,0
7.027645,195.727401,21235.003077,7.1793,335.080554,434.309897,14.473878,66.423089,3.904556,0
7.088758,195.80176,21316.468597,7.109058,334.865766,428.098729,13.989445,67.758189,3.889549,0
7.135919,197.332807,22723.573305,7.231802,333.316264,419.731177,14.060301,67.253494,4.050259,1
6.91146,195.310118,21092.163737,7.121893,334.240834,426.73833,14.752707,67.219528,3.948465,0
7.094227,195.621391,21972.492609,7.029279,330.388637,435.04105,14.163288,65.81967,3.862742,0
8.543217,183.90786,33037.353387,2.726766,358.556471,631.498623,17.333153,68.183227,2.847875,0
7.201417,196.208016,21360.128735,7.110009,333.363721,427.697259,14.485833,65.060653,3.978408,0
6.873603,198.637118,21744.180289,7.042331,332.762962,434.394519,14.30928,65.669829,4.017505,0
6.971264,197.355641,21660.789776,7.157869,333.601864,431.552463,14.443571,66.582563,3.950593,1
7.170918,193.812961,22117.853633,7.044495,335.177745,421.947759,14.497245,66.031284,3.999737,1
7.145817,196.738022,22938.052587,7.040877,332.604491,431.613362,14.285846,67.102699,3.973804,1
8.14266,220.630972,20111.225948,7.446877,354.897131,366.802484,19.721288,53.719366,4.617093,1
7.210461,196.538608,21845.936118,7.192905,332.247725,420.521829,14.318467,65.415536,4.044428,1
7.003124,197.906973,21619.421143,7.003495,330.376193,428.348797,14.568883,65.903271,3.975952,0
8.273644,188.160751,11120.701046,7.410891,346.319774,344.154965,15.314879,89.44685,3.331584,0
7.155934,194.662173,21945.085767,7.167781,332.82618,425.552476,14.356065,64.89366,3.909955,0
7.086465,195.87011,21860.681053,7.25725,333.949354,422.470576,14.208477,66.320393,4.0194,1
8.527142,217.394778,3413.081633,5.670027,337.631073,615.611167,14.926751,82.590152,2.649424,0
6.99953,199.81014,22880.352081,7.219587,330.840083,425.069745,14.417755,67.139491,3.941791,1
7.072098,194.800904,22737.788251,7.197658,332.16982,428.499597,14.578155,66.705308,4.067023,1
6.360196,198.911449,13742.139487,7.441487,338.409576,423.625649,11.9159,57.713149,2.713248,1
7.204396,196.696204,22060.013232,7.169773,332.986123,427.645437,14.396236,66.237232,4.028771,1
7.123294,194.882059,21414.391321,7.052545,332.587518,428.778453,14.393212,66.273547,3.956902,0
7.701033,121.575139,16978.926829,6.812416,354.250252,368.224575,12.997263,69.260209,3.395483,1
7.13008,193.466458,21402.794795,7.153708,329.510037,431.206312,14.294536,66.148112,3.953891,0
7.157594,195.747314,22122.416211,7.193353,335.159165,424.173475,14.236619,67.501321,4.008294,1
7.16689,197.642155,22390.35872,7.210237,334.835024,419.397576,14.369202,66.560511,3.926625,1
8.360796,218.139622,28722.175847,5.536705,310.286577,471.553595,10.644554,49.771941,3.715951,0
7.025478,197.140827,21882.003696,7.004119,334.245598,426.304842,14.65152,66.160182,3.906834,0
7.084045,194.350821,22194.159328,7.325152,338.017791,432.307866,14.235438,67.180072,3.961387,1
7.028069,197.922341,22535.817591,7.179793,331.576875,425.20357,14.156628,66.748297,3.990484,1
7.020109,196.687788,21516.336126,7.077366,333.915362,421.682217,14.457636,66.4341,3.961505,0
7.048651,194.556575,21598.485308,7.059147,332.844477,421.072848,14.103793,66.667991,3.919793,0
7.23055,195.434163,21854.156209,7.272459,333.842017,424.863967,14.590093,66.258371,3.988078,1
9.065894,164.674803,20260.403692,7.588175,304.567537,408.90127,10.1785,84.723107,4.299503,0
7.11325,195.715461,21896.888977,7.212523,326.175922,421.472892,14.242932,66.206539,4.032917,1
4.301373,148.737701,26640.072188,9.242653,316.764406,365.835375,12.515734,54.082289,3.067627,0
7.070189,196.133131,22144.159661,7.223792,333.033101,427.602079,14.672289,66.004668,3.891973,0
7.050742,194.962666,21737.613891,6.952192,335.770052,419.89141,14.391023,66.697012,3.969391,0
7.064833,195.101629,21858.055969,7.126361,334.473993,431.498105,14.302721,66.977382,3.965722,0
7.108,196.749959,21660.987808,7.07973,333.706076,432.27021,14.50119,66.82417,3.980782,0
4.941972,166.71044,19806.411303,8.031865,426.157519,352.039092,15.496887,68.608402,5.076147,1
7.118512,197.085864,21951.809038,7.025033,332.691634,424.817496,14.234194,66.522396,3.979147,1
7.081869,196.609201,22689.140592,7.179289,332.865037,427.604294,14.338441,65.984135,3.974006,1
7.06347,196.328206,21801.260524,7.021928,333.695562,416.174968,14.119896,65.803511,4.018427,0
7.040792,195.498072,22060.169552,7.139886,333.198171,423.922101,14.24665,66.841115,4.008694,0
7.167913,196.752083,23008.900995,7.281129,332.144379,433.108736,14.112922,67.295429,3.939981,1
8.594677,263.764593,23220.120613,6.394463,383.962592,588.852733,13.579996,86.191635,4.754072,0
7.124171,194.000509,21580.562037,7.165773,334.870863,424.27232,14.663948,66.824236,3.903563,0
7.149414,194.09021,22128.703383,7.151425,333.257878,426.292196,14.203305,67.978589,4.010989,1
7.139476,196.611265,21328.394818,7.119546,334.267247,427.663549,14.46005,66.084245,3.994846,0
5.991371,186.722631,28702.95238,5.922293,338.027599,430.185162,17.664555,68.573198,4.539371,1
6.930486,197.377795,21548.923353,7.146129,333.153532,431.444973,14.155037,67.30886,3.921868,1
6.934927,197.044842,21210.981913,7.03648,334.100541,433.534474,14.482591,66.175526,3.951687,0
8.303264,232.414673,16548.35673,6.343523,301.087247,395.339102,13.789985,78.620715,3.892667,0
7.176948,194.714267,20682.292502,7.09442,334.023379,431.461257,14.471029,65.789067,4.026389,0
7.156437,195.5611,22447.707907,7.042352,331.943614,429.719029,14.61152,65.263161,3.981891,0
6.978388,195.683031,22942.608332,7.257872,335.615571,427.794511,14.309978,66.134468,3.988259,1
7.748929,198.843094,18939.936655,7.375883,316.820248,368.402857,9.984033,65.251551,3.136945,0
5.800034,181.453515,13028.688458,6.106765,374.357784,405.51722,15.773825,35.338133,4.074408,1
7.086083,194.17492,21917.673525,7.374329,327.268078,418.482276,14.576977,66.861674,3.978406,1
7.186148,197.558183,22854.687084,7.114235,335.110323,429.589245,14.202639,65.20778,3.993432,1
4.34944,157.513361,24352.066099,5.967722,287.04511,432.642307,10.667254,44.289013,4.442712,0
7.075751,196.89539,22308.265606,7.248205,332.716625,420.512929,14.433519,66.780733,3.992445,1
7.038911,195.162084,22535.865585,7.133496,334.133155,427.475962,14.18622,67.411649,3.953907,0
7.070852,197.26622,21775.47528,7.004142,332.285505,432.537534,14.475152,65.880974,3.967333,0
7.117481,196.37083,21957.017653,7.086097,336.606613,420.585729,14.655154,67.768093,3.993808,0
7.155274,196.740234,23562.61637,7.256711,332.300828,429.599585,14.276832,66.98989,4.011609,1
6.968362,198.144781,21570.986573,7.211462,333.792557,424.823431,13.893818,66.341151,3.95359,0
7.08859,194.555939,22502.449394,7.06562,330.290312,424.142748,14.128578,67.224399,3.984893,1
7.216072,195.247155,22506.710226,7.1219,334.148722,428.845673,14.069542,66.229541,3.966178,1
7.323545,184.13607,21044.202663,6.842947,327.261202,379.492453,8.335245,90.312062,4.898421,0
6.940034,197.515312,22048.412041,7.221139,332.075088,437.451736,14.491106,66.271034,3.941118,0
7.112205,194.009103,22660.136895,7.090622,335.074666,421.318252,14.308519,66.339779,3.956635,1
7.744125,203.396227,21403.002048,7.623242,333.210903,424.32874,16.949811,48.416725,3.61226,1
7.17923,196.091377,22817.32498,7.027747,330.790682,427.911053,14.047708,67.25685,3.915636,1
7.11236,197.278139,22074.535881,7.142878,333.459397,426.993039,14.269223,65.430817,3.94161,1
6.11518,226.084429,24699.523903,6.707523,298.329339,429.706681,14.53608,71.04548,3.690862,0
7.006201,194.297446,22253.921473,7.326305,334.424772,429.053156,14.433104,67.056784,4.012952,1
7.061183,195.180957,22217.183536,7.106374,330.74285,431.272894,14.525469,68.153059,3.952473,1
7.036204,196.442664,22950.896048,7.345516,333.046948,432.083967,14.303266,65.974569,3.966993,1
7.130009,195.868565,22618.756294,7.245252,331.777839,420.851046,14.258327,67.662018,4.060006,1
7.081673,194.662674,20691.337339,7.087667,333.670448,429.649377,14.557736,67.631304,3.951531,0
7.033408,194.114882,22134.757346,7.314168,333.809684,423.951823,14.21192,65.56277,3.941147,1
8.397248,199.495811,16772.226246,8.117218,343.403764,402.464906,17.236047,75.853549,2.835794,0
7.123695,199.303051,21017.148578,7.161239,334.513059,424.733062,14.243344,67.176645,4.003161,0
7.119321,193.710284,21565.286469,7.224809,333.495193,427.08981,14.42695,65.937169,4.008086,0
7.212586,197.752547,22424.112802,7.233375,333.540795,424.349465,14.492636,66.574894,3.948497,1
7.119523,194.304747,22582.899024,7.208014,333.199126,422.736684,14.219518,68.383888,4.02501,1
7.144836,192.991737,21745.477615,7.100023,334.521263,424.203916,14.441984,67.157764,3.946326,0
7.112834,198.426999,21678.694,7.105199,330.461251,427.911506,14.151654,67.626698,4.023787,1
7.148971,199.267411,22160.909449,7.329687,335.127723,420.543723,14.328966,67.375714,3.963019,1
7.069396,197.168157,22774.295329,7.063481,331.982608,425.974217,14.053773,67.468689,3.963209,1
7.135067,192.653489,21895.862857,7.112776,331.367414,420.477601,14.217701,66.354257,3.983468,1
7.169424,197.604181,22936.515518,7.166264,332.046276,425.265172,14.487082,67.87261,4.01991,1
7.093802,194.936339,22323.759034,7.153729,333.473908,419.177625,14.451346,67.225784,3.967081,1
7.188318,195.849169,22066.832544,7.218565,335.205316,423.715657,13.968342,66.302033,3.982893,1
10.268415,225.074218,14694.420625,6.722843,300.763772,353.630913,13.553796,64.012944,5.199865,1
7.020606,196.684208,21640.701671,7.050639,331.901512,419.716621,14.309366,67.056311,3.939229,0
7.096012,195.646924,22169.845406,7.325253,328.306889,428.195572,14.263777,66.752066,3.988417,1
7.193507,195.072858,22599.482242,7.225455,332.325047,424.547786,14.159281,65.741633,3.979718,1
7.221438,194.555184,22241.181587,7.129529,329.798852,433.520883,14.195056,67.138677,4.036916,1
7.048435,198.333898,21645.658497,7.199588,335.399691,420.98268,14.403555,66.588301,3.98957,1
7.126678,196.852395,22348.299581,6.955269,335.774191,432.696657,14.494839,66.471033,4.001262,0
7.065514,193.936277,22205.493867,7.140766,335.00756,421.444389,14.305033,68.457193,3.938669,1
7.008824,196.695048,21967.900454,7.229243,337.462451,416.330045,14.30735,66.942538,3.940802,1
6.930966,199.046155,21917.036779,7.10111,333.904632,428.149383,14.631054,67.003608,3.903616,0
7.171048,192.970147,23128.469932,7.133894,329.987669,428.988544,14.343725,65.528867,4.006526,1
6.963099,196.946911,21101.434705,7.026192,334.527789,424.283282,14.30384,66.042105,3.979507,0
7.233044,196.485341,21476.01323,7.117843,332.259194,428.343556,14.299321,67.016217,3.954067,0
7.30962,198.13699,23047.033125,7.300725,330.483046,420.531374,14.349268,65.184769,4.013434,1
7.111313,192.132073,21111.839934,7.091799,333.94917,428.589699,14.595923,65.024153,3.948002,0
7.080832,197.622855,20920.951651,7.049304,334.560594,431.206082,14.302889,67.169723,3.981555,0
7.01904,195.224508,21412.684085,7.050537,334.032876,425.674069,14.271201,65.979995,3.949618,0
7.077458,196.496105,22192.133201,7.096536,336.150938,422.400012,14.407828,67.729459,3.947222,1
6.935989,193.878334,20664.33808,7.100365,335.69676,421.590933,14.088568,65.768694,3.986343,1
7.156789,196.367801,22216.83958,7.192414,334.209743,420.41132,14.339621,66.511768,4.01112,1
4.811832,150.45128,27547.807056,7.569544,296.002194,521.561561,16.295837,44.288552,2.860993,0
6.983745,195.24517,22061.151103,7.164831,326.527135,419.673383,14.250763,66.651307,3.976552,1
7.152628,196.171614,21513.169695,7.318162,330.545566,418.812775,14.584379,66.354918,3.971703,1
7.269223,194.647265,21889.788006,7.150773,329.455144,424.418097,14.222958,66.606094,3.945476,1
7.242473,197.295552,21937.426695,7.007832,328.875223,423.323085,14.355714,67.711308,4.041107,1
6.143018,147.471973,34865.324634,3.684463,285.455102,475.445268,20.939359,54.19852,5.370403,1
7.038691,193.464547,22334.177389,7.254372,331.493088,429.377657,14.163492,68.833945,3.99956,1
7.076976,194.670259,22164.715202,7.146818,330.045494,434.776672,14.300331,66.897985,3.944263,1
7.127321,192.576181,21225.341119,7.206558,333.203418,429.164254,14.227933,66.898642,4.004238,0
7.147843,195.250841,21864.824888,7.213771,331.839419,419.754087,14.236319,67.370258,4.028086,1
4.03161,145.483239,15105.373098,8.180813,333.71087,342.979013,13.806406,85.679053,4.037939,0
8.124208,207.509515,26489.114701,8.540837,318.059624,431.625677,10.075598,63.984225,4.724457,0
7.110227,198.122503,21439.387235,7.198057,329.130018,425.474324,14.349673,66.166568,3.941469,1
7.02602,195.421999,22440.92529,7.113229,333.046236,429.038758,14.504855,66.21454,3.940498,1
7.155212,194.123517,22365.942219,7.118176,332.177131,421.20708,14.263401,67.107711,3.959493,1
6.975392,205.940246,22685.68444,5.927759,304.049074,441.765158,13.518052,77.9794,4.93146,0
8.137768,203.861867,24172.703313,6.844018,305.83258,470.836265,19.232961,30.708421,5.003826,1
7.153589,200.179001,22443.894886,7.168897,330.868649,431.487623,14.550101,65.581959,4.004041,1
6.989861,196.036201,21586.781078,7.128035,332.216055,427.482568,14.184445,66.624844,3.903175,0
7.202448,197.138207,21997.599088,7.222238,330.006241,421.853166,14.224082,67.185712,4.071128,1
7.077562,193.861851,21858.005124,7.220192,331.421425,433.370606,14.134207,66.096121,3.963368,0
6.953088,197.322281,21888.188462,7.118283,330.246327,427.494132,14.194428,65.155786,3.996739,0
7.152244,197.318424,22621.597479,7.081599,330.80916,426.48961,14.283957,67.069969,3.903959,1
7.100595,195.459338,21260.041281,7.195795,332.214405,422.816101,14.427161,65.902659,3.936315,0
7.082459,195.868585,22223.374295,7.1429,336.606129,433.067216,14.533613,67.751178,3.966314,0
7.044335,199.190378,21603.749268,7.095843,335.382075,428.532837,14.565088,66.438304,4.04823,0
7.016403,197.131889,21564.915803,7.098261,334.263225,427.212329,14.108081,66.900576,3.947488,0
7.138334,198.091383,21848.791422,6.979561,333.797925,430.351727,14.302727,65.756601,3.943749,0
7.091602,194.66246,21885.771213,7.238108,328.324244,420.024692,14.037463,67.568658,3.978037,1
7.111809,200.860597,21957.712173,7.126937,333.541683,422.0185,14.285887,65.258005,3.933192,1
7.016714,197.939134,21197.039506,7.143895,334.069969,430.091809,14.414208,66.635885,4.022086,0
7.161174,193.743383,22673.808097,7.100763,331.291713,426.475301,14.25439,66.821279,3.989031,1
7.147384,197.402726,21682.091253,7.152218,331.903242,422.856134,14.528798,65.876515,3.945398,0
7.116253,194.136693,21696.763912,7.127502,335.530188,419.651441,14.341746,67.586349,3.983869,1
6.618011,233.661636,19598.86074,4.701049,432.556385,401.669791,11.766146,73.191921,4.437696,1
7.116055,195.707421,21298.901321,7.044072,335.413424,427.984761,14.574809,66.775999,3.960574,0
7.166723,194.531957,22640.05776,7.154301,331.901092,428.750458,14.24133,67.20117,4.046469,1
7.133842,194.17234,22083.234248,7.055333,335.685353,423.2348,14.077405,66.826037,3.94515,0
7.046926,194.511905,20968.258761,7.151768,335.123439,425.991469,14.572918,65.365224,3.977574,0
7.127682,197.487326,22574.465927,7.145319,332.942176,425.600842,14.194723,65.719498,3.99894,1
7.197174,196.048906,22912.619534,7.17156,331.931784,427.242343,14.236183,65.972528,3.970484,0
5.862641,185.06522,44069.272158,4.382721,412.690111,331.570139,15.306079,59.605812,5.507421,1
7.136632,193.64779,22663.296199,7.199861,333.835219,425.416147,14.23843,66.748873,4.016653,1
7.078645,197.254223,22305.332328,7.147316,330.847307,423.143402,13.954591,66.835199,3.936577,1
7.090606,194.621581,21155.191883,7.18641,334.547471,432.524269,14.485208,65.986664,3.907165,0
7.037154,194.008419,22306.559362,7.198413,337.492739,428.915322,14.172192,66.978219,3.976861,1
7.05743,194.001344,21903.172447,7.082278,332.190526,421.227282,14.239893,65.210182,3.952665,0
7.044038,196.460146,21521.690359,7.27816,333.21198,429.641279,14.305261,65.940435,3.979621,0
7.064927,194.689424,22517.509107,7.176486,336.10588,427.738909,14.106043,66.560926,3.992088,1
7.05902,197.112429,21254.931623,7.056482,333.785318,428.331676,14.523636,67.026123,3.979959,0
7.202692,198.260484,22916.395269,7.145079,334.770206,425.571846,14.339095,66.83916,3.981689,1
7.082442,197.030342,21675.948609,7.08283,333.834253,426.371889,14.209673,66.048764,3.908699,0
7.096931,198.307936,21626.510814,7.084779,333.133578,429.906027,14.280231,66.694033,3.970492,0
7.036692,196.822679,22941.207995,7.106378,338.023668,434.961261,14.448532,66.49797,4.005947,1
7.157483,197.789156,21773.511709,7.252354,332.067101,427.58108,14.331965,65.06141,3.93136,0
9.484703,122.906991,56351.396304,4.219711,219.553437,480.848063,13.533433,41.731219,4.132274,1
7.030759,196.120035,22536.008218,7.177504,332.268934,414.030947,14.370308,67.937127,4.077594,1
7.180701,195.88791,21456.227709,7.077291,332.588431,424.686287,14.07798,67.100282,3.97462,0
7.058459,197.508632,21242.15959,7.172402,333.829031,422.619761,14.468809,66.863767,3.916332,0
7.116721,194.84894,20785.15665,7.079534,335.473268,422.713354,14.52429,66.070987,3.901721,0
7.201144,194.179705,21125.993528,7.111531,333.987451,425.528083,14.401157,66.211529,3.951042,0
5.772197,200.144971,27840.69421,7.13224,318.643491,414.015043,15.550101,62.521274,3.078986,0
7.066712,198.457053,22126.386284,7.118714,332.424139,423.521861,14.230492,66.435466,3.974373,1
7.122835,195.165783,22680.195299,7.079942,331.802538,421.364247,14.513642,68.014378,3.972289,1
9.30566,163.926027,39498.659289,6.914685,325.873134,345.656935,12.712187,62.471115,4.48507,1
6.959335,196.253598,22747.657648,7.243397,328.132822,424.610619,14.28439,66.863959,3.967752,1
6.916575,198.800693,21355.574247,7.009689,333.897178,422.090962,14.440045,67.18986,3.9705,0
7.144915,193.6217,22951.563775,7.198149,336.322843,427.412798,14.144242,65.309591,3.935053,1
5.579517,223.616393,13289.201653,7.69869,368.897034,375.275969,20.224426,104.580881,4.043915,1
7.115394,193.085522,22021.208714,7.141342,337.469241,428.015616,14.183094,65.465568,3.986571,1
3.989032,216.076138,40175.206091,7.487423,309.800796,399.047181,11.186739,86.957464,4.409414,0
7.061131,196.660981,22132.038467,7.19739,335.512648,430.472599,14.332693,65.15981,3.973963,1
7.080232,196.45062,22092.393895,7.270135,330.168939,420.12874,14.028888,67.453849,4.007157,1
7.029746,197.915674,21800.703824,7.115458,339.478991,430.953476,14.006525,65.277302,3.954023,0
7.064409,195.619393,21679.448041,7.057179,331.547024,429.917723,13.902005,66.505198,3.981667,0
7.230588,194.220186,22135.945947,7.107577,332.705435,426.125279,14.574543,66.509716,4.020494,1
6.997882,193.289527,22544.933456,7.164993,325.652749,427.767456,14.4284,66.42601,4.026021,1
7.049793,196.357448,22233.692172,7.07975,329.488351,425.808111,14.093034,66.335746,3.97213,1
3.961389,173.029641,24028.405406,8.005631,391.0023,444.794277,19.94528,59.834541,4.092966,0
7.138197,196.178559,21941.698666,7.222567,330.168767,419.922116,14.229397,65.933795,4.064053,1
7.12643,196.467836,22020.922564,7.018336,333.685668,417.615702,14.337922,66.121894,3.990782,1
7.246397,200.1562,21819.42685,7.267099,334.260942,427.159504,14.38271,66.565405,3.933015,1
6.952224,197.588778,21151.775944,7.004261,333.060118,427.251753,14.493602,66.184154,3.988738,0
10.524602,256.172323,31965.364041,5.007003,288.565983,505.361417,12.536626,75.343364,4.340987,0
7.156901,196.017139,22123.782446,7.310952,333.408979,426.992218,14.179032,66.214669,3.936936,1
7.157962,193.473482,22769.934176,7.177288,330.408156,428.366026,14.232191,66.647398,3.997359,1
7.147598,195.226538,22003.611681,7.18328,333.853705,427.303965,14.442924,66.309948,3.993917,0
7.133472,199.281567,22762.683999,7.126294,331.205458,424.257615,14.249445,66.447023,3.990228,1
4.663492,170.95183,41452.625574,8.725765,362.415419,378.149,16.274051,60.618754,3.742293,0
7.090065,196.191006,21784.253479,6.99285,326.495851,430.840809,14.159411,67.884097,4.046748,1
7.013088,194.770528,20836.984061,7.052105,335.487739,427.249092,14.496945,66.20469,3.916352,0
7.1431,197.494803,22845.294288,7.265472,332.624082,423.335169,14.234285,66.53152,3.982192,1
7.132372,198.798753,22725.143659,7.053395,332.295905,427.821894,14.191726,65.408824,4.005773,1
7.004731,197.786917,22092.573322,7.058927,331.700332,428.115175,14.299,65.474294,3.922806,0
7.156836,199.688844,21924.566393,7.164787,332.62394,433.193672,14.559583,67.0228,4.00938,1
6.941279,180.817722,15433.134837,7.140122,325.515857,480.878544,20.302337,61.520687,4.17896,1
7.131855,194.943744,21981.844294,7.158774,338.382657,429.192269,14.19765,64.709853,4.00341,0
6.907297,194.395209,21402.848369,7.091747,335.691649,424.238087,14.202011,65.592622,3.951043,0
7.134163,196.837787,21566.357239,7.15332,332.732315,421.632762,14.329899,65.454974,3.983184,1
7.135511,198.004848,22589.872677,7.240299,333.961335,425.091985,14.264337,66.727554,4.026573,1
7.109328,197.52113,20887.545457,7.133177,331.128217,425.892403,14.481242,66.727369,3.939086,0
7.074605,196.500884,21690.310643,7.129792,330.324234,421.775438,14.079179,67.446111,3.991913,1
8.580009,174.50682,6493.547256,7.040727,409.380908,403.596631,16.122668,52.166773,3.195591,0
4.761105,150.074533,19197.105515,7.936652,374.477319,400.451268,11.13215,69.26035,4.581395,1
7.090012,194.367609,22036.370094,7.115211,333.863415,427.191329,14.349478,66.054662,3.922011,1
7.099018,196.408214,22553.158881,7.121821,328.734426,433.228565,14.482763,68.042242,3.960258,1
7.17957,195.80867,21957.955981,7.140415,332.910835,427.89595,14.684786,67.690732,3.950745,0
6.975109,192.944446,20756.122034,7.025934,334.308973,427.8205,14.146794,67.418596,3.990073,0
7.628553,156.793694,26244.036908,8.33761,255.043194,495.966986,13.633974,65.604841,4.182057,1
7.03489,197.349623,22454.641107,7.145237,332.383385,419.45068,14.196385,66.967874,3.912541,0
7.045905,198.033025,22502.66769,7.128453,330.726048,419.786866,14.332275,66.568109,4.04122,1
7.117059,197.93909,23211.257586,7.083797,337.784975,421.920073,14.188276,66.005302,4.010642,1
6.962994,206.817887,24036.593827,7.691454,356.632561,552.273055,8.574691,88.620139,4.760382,0
7.012808,198.925345,21770.324399,7.064011,333.362253,422.617598,14.370877,67.253612,4.054634,1
7.041464,199.433451,21519.73839,7.165103,332.913642,432.472153,14.791889,65.846759,3.926391,0
7.189114,198.634743,21479.71075,7.128371,333.952494,420.440926,14.421058,66.853803,3.962935,0
7.076709,196.918583,22849.707028,7.162266,331.905348,424.827227,14.391983,66.994465,4.048462,1
7.102245,194.336489,21791.045191,7.264527,331.636006,425.027618,14.461227,66.232704,3.994443,1
7.152446,195.033549,22810.550813,7.214997,335.260871,432.750911,14.523071,66.749353,3.997853,1
7.117518,194.991439,23125.126493,7.18297,334.217512,421.53607,14.086651,65.398731,4.043912,1
7.072419,195.287801,22316.180693,7.352995,331.427675,429.255491,14.561089,67.71853,3.962477,1
7.130943,197.385019,22402.414428,7.153106,332.364645,425.942547,14.458265,66.926967,3.963787,1
7.091524,198.460341,22475.59349,7.196662,329.402535,428.64575,14.644587,66.107632,4.036875,1
7.145338,194.928628,21261.643021,7.06676,333.66992,428.24597,14.532149,65.657288,3.954877,0
7.209964,197.567201,21378.067466,7.133068,335.859108,422.842792,14.192095,68.166687,3.964676,0
7.189354,196.274858,21268.816591,7.064767,338.7168,427.444053,14.454376,65.477346,4.001147,0
7.817901,221.089708,13742.145965,6.373737,287.698481,460.599214,12.704827,66.7776,4.622668,0
7.123527,195.285111,22831.24494,7.281875,332.590622,426.384419,14.361651,67.243661,4.006821,1
7.082368,196.738936,21849.909644,7.072234,333.723837,435.796392,14.149884,65.794017,3.972851,0
7.165407,193.894536,21420.754819,7.097919,336.092126,418.692707,14.44197,67.076542,4.01201,0
8.205447,145.797317,17981.254776,6.58046,359.392567,420.394223,15.856797,100.712306,3.739922,0
6.950884,194.272786,22417.072476,7.081138,336.064545,423.817357,14.102265,67.612034,3.986176,1
7.117509,195.075541,23058.699551,7.186647,330.769753,430.961966,14.083956,66.886112,3.961374,1
7.040425,197.528297,21299.994583,7.094308,335.940979,428.006408,14.293262,66.085887,3.975773,0
7.17306,195.586047,22126.404678,7.159265,334.000391,419.995268,14.373265,68.161697,3.941259,1
7.128593,194.337819,22622.394317,7.280915,335.004065,427.349576,14.344449,64.41012,3.99431,1
8.635849,203.361523,13672.091764,4.563009,303.309771,474.607645,12.363817,62.798309,4.401425,0
7.186048,194.510214,22491.323708,7.299688,332.258816,423.93734,14.265961,66.712736,3.935202,1
7.050849,196.312605,21595.103987,7.02735,333.255526,432.865918,14.458551,67.423417,4.004986,0
7.094112,196.442517,21253.176559,7.227452,329.026558,425.211742,14.390854,66.39425,3.905164,0
8.264091,216.551887,23556.934353,5.830685,333.500538,450.857491,8.66772,39.804179,3.410511,1
9.268282,204.360485,14333.538024,9.070126,328.297947,431.475412,11.934802,90.9018,5.255703,0
7.13783,194.639974,21709.732234,7.04557,334.078688,426.738743,14.749063,66.601311,4.000908,0
7.036822,196.904848,21529.69127,7.140644,332.986982,430.858589,14.326906,64.904361,3.982795,0
7.156951,194.706331,21888.86901,7.052118,330.62817,425.045444,14.442685,66.388586,3.998305,0
7.103843,195.531465,21774.868162,7.175178,331.748614,425.190667,14.280853,67.439067,4.019804,1
6.957416,194.652193,21621.346061,7.051357,334.155418,429.05064,14.448396,65.367936,3.937566,0
6.968546,193.979568,22332.019672,7.192167,334.624243,428.860646,14.26409,66.17228,4.020829,0
7.064516,200.315736,21763.272238,7.219316,333.426204,419.950083,14.238814,64.983082,4.008395,1
6.969317,195.052145,22351.549755,7.083824,332.205711,428.232731,14.509638,66.621567,3.977891,0
7.11551,194.118903,21960.986031,7.219007,334.547742,422.139615,14.474696,66.706413,4.00216,1
5.149133,198.33244,16795.318674,6.708068,326.952617,303.333632,12.510887,66.376374,4.839176,0
7.079482,196.175642,21764.568224,7.061634,331.316879,428.917127,14.111924,65.429072,4.125268,1
7.203471,194.174402,21707.225532,7.110172,334.369171,425.457844,14.421802,66.930599,3.999578,0
7.030643,192.767061,22436.302313,6.997918,330.483952,428.424826,14.192745,68.272283,4.048258,1
7.066475,194.457605,22765.270193,7.077336,330.474758,420.102445,14.17004,66.507132,4.065851,1
7.006431,196.079563,22020.476221,7.12514,331.689555,429.48665,14.516665,66.143133,3.934196,0
6.128426,141.49241,9615.83271,7.627919,277.951704,415.008737,16.435843,50.693927,4.633824,0
8.249551,230.932832,32898.749368,7.019971,280.674984,364.931128,17.051185,69.781641,4.284831,1
7.243138,193.600498,23052.75492,7.087271,330.298127,432.94396,14.406327,67.055236,3.973623,1
6.847281,197.350794,21778.283392,7.220282,332.242279,433.792815,14.234459,67.45004,3.924435,0
8.886979,180.563966,26062.447217,8.808963,327.22358,378.658922,17.618658,48.475982,4.731195,0
7.165464,198.323436,21386.320644,7.236503,333.830249,427.835546,13.975555,67.489781,3.972284,1
7.021295,225.350498,23109.854231,5.907273,320.535989,459.89989,13.670099,77.339918,3.675558,0
7.086467,196.420671,21418.357392,7.073541,331.108176,427.657046,14.119983,66.699738,3.968578,0
7.130976,197.5057,22277.203726,7.072192,336.280891,426.638586,14.139922,66.974619,3.956978,1
6.990451,195.8924,21192.202927,7.007252,333.921372,433.284175,14.389365,67.381385,3.962229,0
8.242559,155.616112,24042.18816,7.63921,338.293868,418.263757,13.265853,66.577952,3.529427,1
7.033631,196.715708,22459.32576,7.198751,333.061532,424.665635,14.400785,67.352504,3.980016,1
7.044539,196.550013,21365.541147,7.118693,332.821637,428.012227,14.577999,65.238483,3.930328,0
7.063711,194.749992,20882.767903,7.000939,332.604866,435.008777,14.447301,68.03273,4.00798,0
5.389846,163.344352,19646.233419,9.092721,314.237577,491.750448,15.496325,48.686584,3.577675,0
6.924892,195.572517,22692.634272,7.1929,332.301849,424.458743,14.395798,66.662487,3.941933,1
7.036334,195.885256,21473.727969,7.195699,335.828803,420.79198,14.361771,65.121356,3.975354,0
6.512901,169.21748,25151.411574,4.613311,375.612318,296.074382,15.0887,74.075926,4.40404,1
7.100521,195.961282,21356.087851,7.070799,329.000668,426.302478,14.436378,66.546053,3.918059,0
7.044086,196.566567,21878.328292,7.000472,334.627086,430.269042,14.474015,65.44888,3.997019,0
6.968984,194.435456,22097.883382,7.074086,334.49843,425.900466,14.385138,66.418204,3.980902,0
7.095334,198.787366,22102.193117,7.144212,332.361872,433.420134,14.617702,67.183208,4.0053,0
7.036387,197.168433,22410.011097,7.141224,332.33254,427.841654,14.395437,66.925557,3.942585,1
6.937021,199.3441,22871.08699,7.234682,330.011974,421.314991,14.48882,67.84879,3.982023,1
7.182103,196.727959,22201.966167,7.257711,329.90651,425.711073,14.424079,66.138837,4.047346,1
8.000776,237.51925,18419.132883,8.32333,308.006321,396.376554,13.492536,82.753278,4.51921,0
7.446089,179.146836,17763.310993,9.876515,328.459022,364.134173,12.982491,49.051241,2.948657,0
7.895769,168.724047,28723.617627,9.341475,353.976181,517.436676,11.992772,79.860552,4.391731,1
7.116671,195.993203,22008.811402,7.119514,335.654374,433.586722,14.221405,66.78186,3.903531,0
6.730428,183.915296,9258.767076,8.005173,345.071954,320.667865,12.066808,56.437485,3.961942,1
7.035037,220.501888,19746.493251,7.059383,371.912615,536.1839,15.303433,67.901758,4.557029,1
8.775486,157.354289,22113.391452,7.931503,304.807845,480.715208,15.692839,82.929345,4.393944,1
7.101073,195.327621,21586.345707,7.326624,330.48112,426.969693,14.628138,65.744988,3.979209,1
7.079649,195.109437,20785.174088,7.20845,334.86819,432.119788,14.369535,66.850158,3.985403,0
7.027233,197.629769,21879.155263,7.12417,336.25975,426.24649,14.417504,65.189476,4.002593,0
7.002903,197.59488,20644.461806,7.069806,330.671874,427.1998,14.299961,65.86631,3.970353,0
6.99265,193.91947,20964.855134,7.187567,333.771914,425.919679,14.586191,66.999824,3.910251,0
7.02423,196.442964,21160.891421,7.158107,332.533381,422.518031,14.347844,63.734784,3.929281,0
7.01466,195.513264,21439.229165,7.021389,336.195556,427.721327,14.557013,65.346187,3.939226,0
7.179236,197.322427,23024.745132,7.262933,327.799659,423.96933,14.092114,66.404957,3.936578,1
7.158951,198.940886,22325.189076,7.229786,332.710839,423.039439,14.569183,65.028199,3.984175,1
7.910641,190.4276,16461.502324,5.454476,394.305876,294.178639,17.658652,82.417022,3.886603,0
7.0461,195.639123,22528.020077,7.137521,334.650167,424.00454,14.485132,65.529305,3.982619,1
8.297783,183.614121,20316.426685,7.108809,322.095849,295.653957,13.503197,62.230134,4.239221,1
8.151249,205.847301,15661.940335,7.009437,335.622779,555.590284,14.861133,72.762585,2.799883,1
7.118135,196.664975,22103.495108,7.118834,330.810893,428.429285,14.267489,66.712422,3.995967,1
7.128549,196.873741,21808.095855,7.165457,336.411862,430.081865,14.196163,67.086222,4.001811,1
7.762021,173.636742,15548.416674,5.018671,330.390976,520.640774,11.147704,87.481505,3.256301,0
6.902699,195.416451,21756.222875,7.214757,336.725027,427.883419,14.294229,66.291915,3.99662,1
7.142582,196.685251,22275.716517,7.145615,334.110666,426.190147,14.260263,65.420743,3.93421,1
6.751699,203.400452,26325.817699,8.36547,341.895636,381.440388,19.527319,58.293945,3.756007,0
7.060893,195.833991,20649.038989,7.146518,333.355499,425.486487,14.352312,67.164609,4.010415,0
7.002943,196.587081,20677.892858,7.120078,335.029354,422.175694,14.386147,65.41965,3.953439,0
7.164614,194.623072,21183.174191,7.028865,335.719186,437.41011,14.563793,66.395751,3.89156,0
6.984767,196.477711,22383.169345,7.231859,331.661647,426.047816,14.445646,66.24964,4.025431,1
7.109659,195.794202,21923.010646,7.209753,335.919988,430.745193,14.480516,65.909248,4.006824,0
7.205881,198.420889,21817.7824,7.131538,333.124008,433.543885,14.186058,67.492501,3.98858,1
7.19616,196.742773,20915.345325,7.123805,336.368375,433.828559,14.419045,64.343821,3.956321,0
7.036044,200.615414,21261.22465,6.973379,334.174967,432.132636,14.486828,67.38648,3.938724,0
7.208729,195.282191,21490.931863,6.991811,332.437224,424.650613,14.146272,65.782752,3.942337,1
7.138748,196.271206,22145.863386,7.146671,333.16601,420.198866,14.425008,66.442415,3.950905,0
7.033092,192.802048,22291.972454,7.15437,334.141849,435.398302,14.418063,65.831868,3.953064,0
7.273568,197.068633,21700.120754,6.996166,335.010339,420.366579,14.361104,65.883521,3.927679,0
7.07279,196.205788,21885.769139,7.143035,328.17678,418.708478,14.131248,66.775977,3.956565,1
7.012815,196.948421,22232.344124,7.205175,330.992725,426.663011,14.465397,66.122549,3.98813,0
7.056921,196.262957,21774.326539,7.057768,335.627204,424.915455,14.314356,66.417029,3.97185,0
7.177183,196.914536,22649.160257,7.151228,327.32797,419.998871,14.223026,67.659802,3.970698,1
5.290667,160.432029,9265.104948,9.272066,358.547147,464.573338,11.220817,67.646066,3.530574,0
7.106424,195.131443,21469.719477,7.101181,334.480865,427.346411,14.56036,64.273865,3.907743,0
7.042244,196.705741,22654.171373,6.966545,331.644057,428.059755,14.419458,67.325661,4.008579,1
6.988061,195.426857,21862.925266,7.144559,332.426949,427.307912,14.575572,65.556862,3.974318,0
7.02216,194.716967,21357.502661,7.17232,334.327869,426.872091,14.117146,66.19612,3.928601,0
7.089153,196.440441,21307.236025,7.183483,333.701754,429.047549,14.314906,65.482597,3.928305,0
7.142651,197.336615,21211.203103,7.092607,333.882923,422.427715,14.46337,65.599849,4.006387,0
7.02535,198.000161,22176.789918,7.121149,335.273432,430.539047,14.680676,66.276546,3.968094,0
7.058428,193.822653,22741.875701,7.126181,330.22281,422.451439,14.142567,66.715006,4.003961,1
7.222128,195.600204,21900.312117,7.20296,327.130158,417.361899,14.393736,65.868099,4.048282,1
7.080281,195.896669,21913.866726,7.121158,335.14129,423.696789,14.513948,65.66598,3.886716,0
7.094557,195.384844,22564.440676,7.128143,330.631026,422.961484,14.733727,67.10084,3.95691,1
7.147739,196.368308,22066.861126,7.237007,333.905186,429.180222,14.376897,65.431907,3.897042,0
7.309556,244.83977,22277.626022,7.715572,369.038841,477.235381,12.475119,60.806902,3.707414,0
7.074372,198.297219,22204.966305,7.166058,329.973921,423.378615,14.077775,67.064784,3.996736,1
7.150906,194.901516,21930.240802,7.275574,334.171992,428.409616,14.416072,67.051525,4.001464,1
7.070382,195.361517,23078.597558,7.23061,333.829239,425.912402,14.20277,66.108835,4.012324,1
7.228911,192.862013,22353.043895,7.235527,331.322037,424.496846,14.15924,67.42137,3.989697,1
7.082657,193.269326,22351.026755,7.071051,335.02527,431.408159,14.554166,67.229961,3.978645,1
7.117065,196.745128,21841.566477,7.179952,334.462176,434.049874,14.500692,65.73508,3.959249,0
7.067729,197.100204,21688.281878,7.02866,331.685505,427.250058,14.650835,67.344034,3.967462,1
7.085194,193.778493,21673.944517,7.217511,335.33721,433.133718,14.195434,66.938839,3.969251,0
7.115778,196.224442,21646.62975,7.057915,331.130832,432.807624,14.598588,66.104664,3.955993,0
5.28481,148.862758,11130.211365,6.820469,335.66045,485.805431,13.77335,60.944343,3.990243,1
8.070477,198.865948,18266.617717,6.90237,396.61951,376.710304,10.924461,87.379561,3.05579,0
7.123159,196.332295,21900.08024,7.160356,331.365435,428.673283,14.295835,66.668186,3.928774,1
7.241628,195.541866,21145.712504,7.183641,331.014443,429.47288,14.40651,67.354929,4.016174,0
7.095443,195.320837,22415.214814,7.253937,333.881306,424.415078,14.36636,66.152517,3.987859,1
6.587465,211.169277,28990.297847,8.883665,267.202392,504.908752,14.054691,68.976475,4.096841,0
7.020444,196.772061,22240.496648,7.250784,330.686565,425.310884,14.634284,66.348362,4.005912,1
7.151854,197.112267,22255.906883,7.056477,336.862304,423.852968,14.489696,65.368003,3.922186,0
7.044501,197.32203,22374.986271,7.10409,335.88111,435.039496,14.470348,66.58129,3.913566,0
7.08127,196.214441,21704.585307,7.115729,332.660834,422.278578,14.646825,66.071486,4.025403,0
7.110845,213.886337,25043.532803,6.048437,245.954253,505.735535,16.38314,91.681026,5.712792,1
7.184969,196.207161,23051.774286,7.195285,331.919924,428.129594,14.29543,66.062806,3.979253,1
6.89008,195.251555,21251.723541,7.073571,329.796299,423.93811,14.235794,65.294798,3.973878,0
7.116689,194.562641,22763.075045,7.246945,332.452736,418.689136,14.35427,64.832775,3.975585,1
7.080138,194.666126,21432.916727,7.075433,332.075035,425.177669,14.330737,66.305429,3.934728,0
7.086877,192.387368,25524.82347,7.354035,322.740031,548.917718,14.524408,64.124391,3.992848,0
6.732714,197.766974,33820.64576,7.396764,353.176328,321.364518,19.340499,85.371961,3.885405,0
9.079715,222.042631,53735.899194,6.894915,254.040977,382.896167,12.704887,101.615346,4.551724,1
7.118984,192.828836,21987.488421,7.125733,332.546598,426.801984,14.333164,65.32589,4.039346,1
7.166937,197.405514,22838.863345,7.192892,329.171373,425.914349,14.228597,66.468194,4.013831,1
7.120622,197.139922,21061.395857,7.068462,332.961752,420.726637,14.27929,66.681233,3.937874,0
7.162407,195.176641,21603.218527,7.225384,332.143238,427.432166,14.18421,65.678681,4.007124,1
7.024829,196.447889,22061.227699,7.079102,335.407123,421.189946,14.369979,66.341363,3.935843,0
7.021617,203.201197,12352.811105,6.845744,380.804054,435.674393,14.507013,68.233386,3.855636,1
6.911514,197.447581,21457.677323,6.985402,332.712133,424.323655,14.519836,66.206689,3.956075,0
7.103374,192.487702,22311.353682,7.194558,324.851124,433.1815,14.334473,65.700958,4.011481,1
5.973951,182.143328,26804.109491,5.737988,399.25369,481.901929,9.209972,48.937329,4.208923,0
7.073412,197.438032,21546.159098,7.126696,331.159669,423.769394,14.281833,67.246657,3.961704,0
10.268431,218.216682,13753.993373,7.512608,334.178075,341.602209,15.671564,84.68266,4.304689,1
7.172323,191.389422,14702.059069,6.557105,313.866282,525.03102,12.630182,108.265227,3.084216,0
7.09948,195.334642,22117.765958,7.251687,332.913656,422.474173,14.621769,67.027766,4.009059,1
7.131693,196.865094,22978.322998,7.196476,337.885143,432.273264,14.034632,67.075708,3.96993,1
6.80377,196.789936,21494.146486,7.18335,333.177427,438.553324,14.109714,65.847935,3.917534,0
7.155584,195.958984,22156.899017,7.075653,330.959984,420.688206,14.146121,67.161997,3.97845,1
7.167654,196.435733,22008.475173,7.020405,332.269074,426.449282,14.264147,64.776866,3.944164,1
7.117957,198.470938,21850.220777,7.280445,331.90767,428.342424,14.161684,66.794454,3.935181,1
7.009069,193.355505,21744.253842,6.984619,333.786265,425.76368,14.524105,66.675694,3.97531,0
7.088469,195.371526,22489.647721,7.026573,330.592193,425.3958,14.376096,65.564786,4.073454,1
7.205523,194.321991,21741.619843,7.043524,333.685411,424.575306,14.467337,67.033902,3.969277,0
7.06419,194.094562,21132.119893,7.204586,336.116501,426.840777,14.312863,64.434491,3.977247,0
7.127715,195.710765,23129.667716,7.113611,330.53054,422.727502,14.466071,67.533718,3.952858,1
7.227656,193.855603,21809.065945,7.341091,334.065642,420.808446,14.148615,66.225202,4.013622,1
7.055708,196.691755,22011.589235,7.129447,333.140446,432.08365,14.517673,65.691105,3.953378,0
7.072621,196.207887,21981.422273,7.022709,332.393019,438.783395,14.2638,66.372297,3.886273,0
7.055247,195.068218,22213.108982,7.102577,333.545428,429.124208,14.285568,66.806778,4.003569,0
7.17722,194.762936,21630.499346,7.130472,331.155202,414.824608,14.484785,65.28495,3.951359,0
7.049688,199.150765,22124.519672,7.228337,329.304047,429.744563,14.473739,67.227729,3.991564,1
7.023085,198.109335,21246.45448,7.140194,331.982852,424.767314,14.295995,66.283151,4.028028,0
7.059947,197.130765,21067.866188,7.139092,333.440256,426.091763,14.502895,66.362444,3.965362,0
7.050823,196.923018,22452.107708,7.150711,329.400722,420.203131,14.513981,64.44148,3.962721,1
7.13474,196.188136,21887.546015,7.213676,330.620925,414.639142,14.445696,65.808625,3.951824,1
6.993548,194.33633,21096.664542,7.032127,335.835212,419.004912,14.513155,67.58485,3.911708,0
7.069128,198.631396,22194.493482,7.175421,335.356456,422.373594,14.117755,66.962488,3.997828,1
7.050974,196.537168,21881.984658,7.093903,333.062444,428.708954,14.315547,65.856563,3.934978,0
7.140444,196.336972,21456.238978,6.993753,336.974102,426.598411,14.668872,66.017969,3.968066,0
7.096617,198.782942,21824.097668,7.130877,330.951353,429.451599,14.155033,66.060006,3.929994,0
7.073102,194.044838,22019.808906,6.984496,333.815817,433.530065,14.451263,66.14919,3.895027,0
7.095265,195.838871,21157.171781,7.10594,336.582728,428.968383,14.706582,66.216474,3.922418,0
7.006134,195.353194,21475.789503,7.055136,333.106447,433.419282,14.223158,65.786981,3.97568,0
7.060856,196.820748,21020.319698,7.009841,337.489598,427.729778,14.111229,66.233672,3.891798,0
7.02996,197.056003,21766.685094,7.061969,334.285721,428.612836,14.400114,65.641355,3.960373,0
6.977406,205.563499,16100.967947,5.527299,371.361851,532.342083,10.346574,72.573959,5.327585,0
7.079984,194.660277,21569.90036,7.22898,332.299348,428.553655,14.266556,65.15185,3.988915,0
6.98136,195.813785,22001.041474,7.0974,332.576132,436.624684,14.478991,66.174528,3.945803,0
7.111268,197.108967,21513.483173,7.154768,334.968014,424.103651,14.239062,65.659473,3.948622,0
7.034883,195.520256,21783.905011,7.204896,328.047429,425.244,14.073464,66.212157,3.976286,1
7.050743,200.613941,22003.479695,7.219178,334.172593,409.931204,14.006969,65.949123,3.977007,1
6.997229,194.282713,21155.989142,7.129645,334.138359,421.226039,14.216232,68.04222,3.953531,0
7.237648,198.12153,21487.221353,7.083131,331.103992,418.019922,14.406558,66.725543,3.908554,1
7.004613,198.84835,22025.491068,7.037728,334.855018,428.782964,14.384801,66.025125,3.973028,0
7.117227,196.283339,21953.284413,7.139462,330.058117,421.609702,14.170499,66.008281,3.987628,1
7.241224,193.08054,22679.290876,7.220386,332.107208,423.951071,14.410007,65.764488,4.030092,1
6.986696,193.412323,21841.492896,7.043831,331.519251,425.243035,14.265816,66.483036,3.911766,0
7.134878,196.793697,22448.25034,7.270942,331.097929,423.481945,14.394987,65.583113,3.970204,1
7.154177,196.438929,22612.801131,7.012817,334.667329,420.031285,14.060131,65.493136,3.954453,1
6.997338,196.658512,22151.751351,7.157096,331.624795,422.839492,14.101802,66.719745,3.995719,1
7.053313,196.299439,21384.795647,7.124428,332.914272,426.25006,14.574351,64.761555,3.964155,0
7.000053,192.705128,22423.303144,7.118455,334.575334,426.112927,14.144957,64.948274,3.926813,0
7.040337,195.994459,22534.8134,7.149757,335.44716,427.329541,14.475399,65.342818,4.053588,0
7.072918,197.061779,21898.363278,7.289539,335.199755,427.405631,14.268952,65.915327,4.014391,1
7.089514,195.855153,22216.864959,7.14703,336.076021,429.8809,14.438277,68.964858,4.048813,1
7.120634,197.485881,22024.868131,7.301406,332.009594,423.553227,14.13804,67.152384,3.978055,1
7.053871,197.008702,21044.552104,7.122241,333.60582,427.370576,14.241226,65.200921,3.999903,0
7.032723,194.231033,21389.440689,7.077694,333.037941,429.997575,14.581142,65.354262,3.938648,0
9.794718,254.425066,12490.558276,5.99248,291.197261,576.046083,11.665297,80.698214,2.80713,1
7.03039,193.847279,22669.860226,7.219661,332.142292,422.706304,14.345333,67.502979,3.982479,1
7.085671,198.557083,22547.775004,7.179162,332.218626,429.975419,14.499709,68.087122,3.935919,1
7.077479,197.98889,22030.128299,7.185072,335.36426,434.67222,14.34077,66.362493,3.967642,1
7.330197,159.80372,14884.339958,9.194575,411.100692,404.195912,17.375739,51.153972,2.884715,1
7.048053,196.26374,20730.440764,7.157072,337.130123,422.644073,14.410728,65.861193,3.992779,0
7.142671,196.874836,21915.351648,7.166422,334.377191,429.682197,14.274303,64.131167,3.935753,0
7.177918,195.544005,22232.454433,7.117504,336.176842,425.101843,14.216654,65.851228,3.939711,0
7.093297,196.438796,21881.634695,7.131311,335.041172,431.550634,14.394633,65.702558,3.942616,0
8.304335,155.569942,18253.181095,11.448469,329.100636,380.32344,13.755926,35.05703,4.181254,1
7.07251,198.093672,21454.961186,7.216324,332.071029,425.668094,14.445389,66.320229,3.984448,0
6.997886,195.143243,21757.20634,7.16371,333.930823,430.797041,14.314841,66.336758,3.947256,1
6.846914,196.1298,21292.89251,7.170117,334.236015,423.446269,14.366921,66.478919,3.941208,0
6.961331,195.528309,22289.234992,7.105737,337.171037,420.287049,14.325411,66.279434,3.936249,0
7.097573,194.910309,22230.129682,7.105231,335.405327,428.967994,14.537752,66.823618,4.000505,0
7.164927,194.856905,22323.723445,7.17217,330.482552,427.055111,14.28009,66.011768,4.027057,1
7.128916,195.926707,22521.111172,7.294667,333.003484,424.342778,14.32726,66.625666,3.962327,1
7.117424,195.248313,22509.804506,7.15962,333.046172,428.690089,14.262392,65.76918,3.993013,1
7.021906,195.599934,22247.311103,7.14636,332.317714,421.849712,14.334071,66.867763,4.056121,1
7.104763,197.432663,23160.985835,7.1441,332.414021,422.928778,14.36868,66.008722,3.988695,1
6.816417,237.269505,24170.274894,8.706012,349.772176,477.023965,16.57406,92.945757,4.274738,1
7.126337,195.884021,21952.077048,7.073815,334.866302,427.231061,14.359278,65.989329,3.97405,0
7.127698,196.175196,22184.836814,7.144772,331.656078,430.922676,14.507313,66.444875,3.96811,1
7.146921,194.136471,21526.974157,7.141401,334.261899,427.090726,14.841447,66.870205,4.011938,0
7.1006,192.249211,21572.674209,7.141668,334.313515,433.444127,14.385389,66.449518,3.900138,0
5.117914,179.701677,26215.401103,5.502903,303.257592,369.618616,14.761878,82.831554,3.8067,0
7.087763,195.26535,21419.398006,7.084217,336.945572,428.294593,14.236513,66.773438,3.954635,0
7.139845,199.0862,21860.988624,7.216015,332.348191,425.481151,14.389181,66.134491,3.951858,1
8.649869,178.588753,18503.766525,7.24082,356.26308,329.504191,15.280653,83.783477,3.081681,0
7.104047,198.164421,21405.221813,7.116665,333.100057,427.714926,14.442307,66.112185,3.920326,0
5.524297,157.142424,26220.174214,6.344585,379.788376,475.342272,16.90318,51.106614,4.033391,0
7.079026,194.912265,21728.406556,7.130865,335.447606,433.471393,14.180146,64.958485,4.007888,0
7.048278,197.908283,21871.898769,7.048801,333.391916,424.553624,14.463146,66.992501,3.970682,0
6.369112,235.340943,34456.801132,9.17094,295.350524,357.417285,9.213268,59.280269,2.275903,0
5.791154,190.431679,20288.235569,6.298366,347.04102,544.857481,17.706838,84.388191,4.104835,0
7.888844,228.488394,15824.788729,8.388944,314.843291,423.662707,17.630362,56.42021,3.630524,0
7.107859,197.629658,21839.209496,7.105338,334.582412,427.179964,14.447111,66.04032,3.990244,0
7.150758,195.225936,20390.185511,7.002692,334.57295,431.346134,14.598161,65.972188,3.917927,0
6.986792,193.556128,22265.758482,7.091067,332.513604,430.636686,14.231471,66.720796,3.940868,0
7.191962,228.409943,15395.469082,7.398603,334.777619,294.915584,13.932293,50.748365,4.102719,0
7.065519,195.606116,22485.840825,7.071537,334.875667,429.442069,14.599495,67.094383,3.93407,0
7.111333,196.617092,20776.454532,7.175655,333.651933,429.126815,14.171523,66.531927,3.928756,0
7.082151,195.432502,21945.370012,7.136522,332.058871,422.628528,14.485114,66.938251,3.980165,1
7.097055,199.059724,21292.280815,7.14905,329.653498,425.492586,14.308617,67.678233,4.019355,0
7.148407,194.939243,21432.664454,7.102493,334.877242,425.457771,14.374078,64.989215,3.972002,0
7.144717,197.877216,21777.477311,6.979286,330.002795,426.47825,14.572073,65.193043,4.055538,1
7.059149,194.957616,23086.250497,7.227151,333.83532,414.57354,14.190525,67.608919,3.986127,1
7.079367,197.378781,21225.28776,7.062134,333.847823,436.376848,14.674582,65.25346,4.01924,0
7.105899,195.116269,22281.470799,7.118,332.619712,429.12377,14.150568,66.897227,3.979204,1
7.074792,196.150134,20962.233499,7.180461,335.459015,424.249753,14.547768,66.065134,3.930839,0
7.146941,197.675182,22223.716144,7.288706,327.759014,424.090488,14.543086,66.053252,3.981833,1
7.128336,197.604154,22358.207651,7.140382,336.274251,427.447387,14.447573,66.283407,3.98869,1
6.918084,196.958458,21896.954556,7.057462,333.57561,424.665174,14.451376,68.093458,3.97606,0
6.925425,197.179742,21919.893104,7.047362,335.420248,427.785832,14.687593,65.432173,3.905028,0
7.279947,192.578827,22026.355755,7.175004,330.726186,425.700139,14.278395,65.670422,3.989761,1
7.124498,195.648556,21480.049171,7.176509,327.163085,423.68748,14.05992,67.300899,3.980615,1
7.045979,194.850982,21682.138893,7.15438,331.675458,424.401607,14.140296,65.730303,4.019608,1
6.950385,198.519715,22582.662637,7.037421,333.059233,424.850065,14.13174,65.807687,4.001921,0
6.979048,197.783482,22278.439921,7.276274,330.183842,426.928384,14.375658,65.071288,3.936887,1
8.575673,197.560283,15888.625207,4.865463,311.557381,464.725567,18.736927,40.224521,3.506229,0
6.95805,196.918196,21561.644013,7.139267,333.065309,429.187373,14.631339,66.183892,3.954177,0
7.188684,197.771748,22171.223695,7.108628,330.94694,427.405232,14.026992,66.278409,3.916624,1
6.905294,196.240868,22382.668728,7.104581,333.58313,424.389398,14.277214,67.145406,3.934956,0
7.172044,194.787989,21711.192747,7.011171,334.82333,426.384668,14.702227,65.640131,3.95643,0
6.906092,197.124322,21675.829057,7.068813,332.846786,424.492246,14.451298,65.12593,3.937138,0
5.770621,194.500144,16173.727093,6.341797,318.788933,387.130483,12.042914,52.512261,4.240821,0
7.164098,195.368337,22138.273938,7.16586,332.644933,424.621156,14.569699,66.495704,3.957506,1
7.074048,196.409934,22745.586969,7.156622,331.634167,428.704062,14.15094,65.366421,4.000907,1
7.178268,192.188244,21129.593847,7.083396,334.150446,424.417507,14.354876,65.808901,3.964932,0
7.958984,171.483625,23625.813886,9.537735,259.979966,327.623881,16.11711,107.754043,4.698008,1
5.713323,196.245706,11356.580481,8.027819,347.587583,300.125125,18.430084,44.860351,4.571128,1
7.092476,196.279316,21741.605441,7.120182,332.89302,422.934725,14.333893,66.570481,3.945319,0
5.653506,146.590232,16462.460086,6.501596,299.644611,272.440558,13.795264,87.822585,5.198986,0
7.138104,194.579805,21658.702931,7.084314,331.724245,429.621304,14.416095,66.175113,3.920967,0
7.006961,194.81175,22172.554809,7.126259,330.243134,428.412904,14.310187,66.113893,3.983093,0
7.167388,198.551639,22360.65485,7.18089,332.557151,423.705617,14.243501,66.447526,3.948891,1
7.057553,177.674305,13129.149842,7.312352,367.328533,393.740497,16.35632,53.841797,4.486403,0
7.009106,193.903325,21250.911583,7.132186,334.26247,431.929921,14.377455,65.419159,3.951539,0
7.291172,196.478722,21179.95049,7.117856,335.305138,432.496064,14.436882,65.747968,3.910469,0
7.062794,195.721721,21111.036776,7.035568,333.247477,432.198026,14.464934,66.016551,3.979603,0
7.078614,198.197572,21700.403331,7.079618,337.040679,429.063328,14.40926,67.573377,3.954193,0
7.133184,194.338817,21709.754557,7.306914,335.447126,429.932811,14.2782,67.56312,3.953876,1
6.989491,192.885956,22073.791064,7.204109,337.939441,430.224606,14.290079,67.0376,3.933744,1
7.152062,196.090327,21168.443663,7.095334,332.44331,424.85232,14.112762,67.734914,3.990348,0
10.808157,198.596751,29614.34879,5.782418,304.622061,383.26941,14.90282,47.896406,4.362542,1
6.143921,175.274076,29072.169654,12.062536,287.698157,469.983324,13.142493,83.279658,3.476213,0
6.985317,195.014343,21763.124319,7.195008,335.059182,423.196428,14.364606,68.529375,3.95085,0
7.146427,193.895933,21220.975525,7.097235,331.224921,433.442817,14.484839,66.870604,4.061319,0
7.210007,196.903,21398.484889,7.194212,333.196034,417.004284,14.276552,66.754322,3.971926,0
7.064759,193.677008,21982.803174,7.253166,327.409549,424.264332,14.54306,65.400299,3.955156,1
7.423088,210.046197,31073.031338,6.374709,312.103161,460.894212,16.80599,41.607907,3.712682,1
7.885679,207.821304,12359.631194,7.377663,340.978985,499.36169,14.045191,97.62716,5.43035,0
7.22117,193.674962,22162.337145,7.289349,335.97678,430.627858,14.214137,66.280657,3.944594,1
7.083779,112.820254,8580.245561,4.210284,234.852699,434.747715,23.399516,94.160307,3.887681,0
6.642756,168.896422,36505.524258,6.062561,298.55248,474.05749,14.299242,71.706891,4.299209,1
7.12209,196.227086,22187.536664,7.265589,331.497137,426.731642,14.364121,66.258938,3.992987,1
7.093904,193.315996,22031.565571,7.059765,330.046009,424.570907,14.251469,65.495721,3.988293,1
7.037477,195.32045,22943.67955,7.13997,331.079898,424.154202,14.238143,66.604129,3.97848,1
7.169488,195.509021,23066.235885,7.196602,326.944496,416.673603,14.096113,66.330937,3.976,1
7.090787,195.117029,22031.802474,7.264399,334.707207,423.480134,14.400426,67.25907,3.997793,1
7.174891,197.300955,21878.660903,7.167164,335.232977,429.84907,14.148227,65.773357,3.910362,0
7.169158,197.527578,21683.346838,6.835102,331.686643,430.652996,14.446026,66.719379,3.857826,0
7.110522,195.249401,22662.813825,7.173514,330.395863,425.653822,14.396253,66.0845,3.98333,1
7.137307,196.026032,22478.00475,7.149231,333.394712,424.011483,14.33449,66.884594,3.973308,1
5.59673,229.295098,44652.363872,6.500953,323.999049,424.257013,12.361827,40.412098,3.826158,0
8.722144,151.621132,28301.516949,3.651961,248.094759,468.367451,15.151173,79.538368,3.274629,1
8.659113,114.807578,23514.636647,8.735315,333.027205,318.640679,16.559076,52.866373,2.895774,1
7.073909,195.847048,22916.694824,7.194651,333.124944,429.117352,14.235401,66.735347,3.976492,1
7.125437,195.987321,22182.667022,7.04303,335.130232,425.650771,14.379164,65.025449,3.865936,0
3.64163,183.908722,24752.07246,5.538314,286.059556,456.860096,9.034067,73.594657,3.464353,0
7.055336,194.894469,21652.419793,6.947894,333.453031,429.254703,14.316364,66.095152,3.966283,0
7.129979,194.848514,22392.94306,7.085231,330.895189,424.075516,14.463584,67.358818,3.967325,1
6.5825,200.733107,23720.48173,8.565832,353.008115,458.362733,13.001881,79.529338,4.152014,0
7.108965,195.028529,23035.983392,7.124095,327.659621,422.954268,14.346795,66.585214,3.96751,1
7.204967,196.354693,21919.645856,7.17177,330.945972,426.995729,14.491455,66.579059,4.045016,1
7.121788,195.74464,21873.454865,7.089721,334.612207,424.265769,14.659268,66.434844,3.907022,0
7.110165,194.89392,22765.088482,7.250296,329.5935,423.78629,14.203029,66.315173,4.019062,1
7.139083,195.694655,22911.177843,7.088774,330.504616,420.350329,14.436741,66.71525,4.048418,1
6.579185,186.986869,16700.034873,6.454925,379.040709,405.276912,14.996029,62.152315,3.813556,1
7.155745,194.833261,22579.1281,7.0685,330.651391,418.738942,14.428219,66.486953,4.042026,1
7.256152,198.528357,22181.08941,7.046307,335.856018,426.311875,14.134927,66.986205,4.00939,1
7.072375,194.391175,21680.132587,7.031225,332.390477,429.41057,14.149668,67.073082,3.911732,0
6.246264,163.218038,26408.881768,6.02967,429.022312,509.956864,23.569645,19.175175,5.044455,1
7.514836,215.439523,17017.42996,7.417041,335.652454,483.658028,14.532854,66.037246,4.299732,0
9.678051,188.368741,26402.703957,4.074141,395.904208,325.001116,16.917994,91.41688,3.0297,0
7.096287,194.628765,21737.329449,7.144865,333.019828,429.190375,14.459993,65.982316,3.988962,0
6.986744,195.695079,22177.801474,7.352765,330.023789,429.824613,14.403258,67.469083,4.022354,1
5.098967,197.142637,21682.754771,7.755905,292.251426,424.666112,10.92759,51.22096,4.333667,0
7.174243,195.49224,21954.727222,7.222575,333.328887,425.319043,14.212795,66.037373,4.03079,1
5.057271,155.487725,19003.963899,6.250893,305.849797,518.101816,15.772438,97.199077,4.432271,0
7.096646,195.609009,21165.969978,7.141652,334.159285,436.453977,14.374943,64.843124,3.955028,0
7.072762,197.346505,23003.191489,7.141668,332.48888,426.340913,14.190459,66.441038,3.946883,1
6.977965,195.32697,21957.939791,6.990794,330.172857,431.205254,14.462931,65.80638,3.988185,1
7.056477,195.539524,21978.027806,7.438073,330.939992,425.476355,14.417683,67.254297,3.956721,1
6.917175,195.00272,21172.245711,7.029279,336.288262,425.116732,14.589565,66.496416,3.972833,0
7.094383,196.936369,22378.826232,7.081827,332.336067,422.083546,14.122268,67.280548,4.017687,0
8.655299,222.268793,13676.753524,7.271299,348.618844,460.870647,18.01676,72.428205,4.588758,1
6.989664,196.91351,21671.289308,7.18501,331.752628,433.552578,14.111247,66.100019,4.03094,0
7.097539,197.331593,22039.754906,7.265559,328.152988,423.613348,14.594906,66.461852,4.036959,1
7.471027,177.233643,15736.580986,6.878354,277.109854,401.618218,11.285709,58.236119,3.707974,1
7.030614,195.269082,21510.419274,7.048726,332.819075,423.733381,14.453579,66.204847,3.956014,0
7.06696,195.230898,23017.450402,7.260131,335.379514,428.424856,14.279137,67.861446,4.00053,1
7.00284,195.720629,22347.931756,7.134289,335.362947,425.032082,14.610988,67.042342,3.948705,0
7.068192,194.531835,22503.830181,7.143999,332.489926,416.391722,14.434708,65.344344,3.990081,1
7.045933,195.85675,21642.365467,7.087074,335.37887,418.23913,14.202026,66.195151,3.967095,0
7.754044,193.449854,19019.279505,8.107067,377.990009,597.486041,8.939818,45.721308,3.760298,0
7.143755,194.308868,22343.291397,7.158779,334.631357,423.594051,14.263464,67.648078,3.96813,1
7.119086,192.494941,20899.745094,7.049379,335.175221,422.859719,14.124106,65.786354,3.949365,0
7.052601,195.465595,21613.130862,6.975539,334.962753,425.519996,14.451535,65.708049,3.939725,0
7.10367,192.011377,22711.54548,7.087666,330.693887,424.703377,14.346835,66.836251,4.00853,1
7.027023,197.710935,22257.852071,7.230591,333.962662,424.664964,14.279157,66.442278,3.936362,0
7.25311,196.125947,22307.867207,7.098595,331.402506,430.765864,14.383679,66.902179,3.974944,0
7.190039,196.407091,21886.297631,7.207745,331.934434,423.206023,14.191257,65.354686,4.029753,1
7.066384,195.396677,20915.645392,7.120392,332.312099,429.823451,14.332912,65.849604,3.954918,0
7.070657,196.151783,21296.810247,7.058156,336.184681,424.821768,14.247166,65.697344,3.891737,0
7.088161,195.632737,22397.189872,7.217783,330.29176,430.788961,14.481218,67.179014,3.928894,1
8.29372,206.160415,35216.38597,6.441,347.062241,399.483621,16.065668,79.954511,3.954715,0
7.181003,194.659882,21912.850081,7.056883,336.844304,426.238746,14.227927,66.574138,3.956451,1
7.127703,193.544587,21583.653959,7.198658,335.204535,428.554778,14.204821,64.966989,3.94602,0
7.097502,194.412034,22522.173706,7.272919,326.185582,423.118677,14.273798,68.167169,3.959791,1
2.569244,201.603284,48204.172192,6.380684,261.71996,429.74643,10.78414,79.719666,5.506934,0
7.003959,196.349064,21043.000607,7.03206,333.449793,425.300712,14.288809,66.195134,3.954455,0
7.154796,196.020935,22559.652333,7.092028,333.605213,427.877527,14.246001,66.474942,3.951425,1
7.150641,197.07014,22221.965572,7.209996,335.109466,434.899127,14.644506,65.784944,3.950739,1
7.109741,198.342084,22939.006455,7.193246,328.466051,430.736707,14.311106,67.369378,3.974279,1
7.149468,194.369065,22317.436556,7.223734,332.582556,419.053131,14.267342,66.987911,4.035055,1
10.905076,207.004837,16099.151896,8.186479,369.683867,575.309037,17.55688,80.749849,3.720264,1
7.186629,195.239814,22222.752552,7.125951,325.817971,426.905856,14.079822,66.735649,4.023568,1
7.1066,196.67233,22795.793641,7.154392,325.806311,423.166953,14.398333,65.285349,3.957557,1
7.083924,193.309123,22521.891244,7.301932,334.263929,424.888426,14.545666,65.889901,3.972154,1
7.040904,194.450021,21840.250524,7.160328,335.21063,434.140464,14.549967,66.24358,4.071617,0
7.161914,194.92602,21208.098612,7.042653,333.579487,429.282234,14.257528,66.613579,3.893786,0
7.066789,195.356047,21144.086646,7.082687,333.890217,424.190882,14.61305,66.238417,3.95749,0
7.047026,195.08928,21439.413529,7.220009,334.837466,434.463296,14.306833,66.335236,3.931328,0
7.021134,196.371389,20863.02943,7.022031,333.097557,432.26924,14.468234,65.694827,3.915572,0
6.217585,203.707222,15597.640883,7.751461,361.24781,452.922025,14.597145,70.850977,4.150167,1
7.203207,195.955777,22454.371077,7.018183,331.576581,432.117724,14.374252,65.867435,4.011801,1
6.336457,185.680004,25927.265432,8.199318,321.817662,490.972426,10.665799,51.552301,4.56122,1
7.039382,196.951261,23002.700098,7.285642,329.299144,427.999541,14.360614,66.282554,3.949779,1
6.945223,195.993909,21646.48819,7.120376,330.609014,426.856667,14.249456,66.244299,3.972342,0
7.050042,196.66522,21974.274184,7.063969,334.63721,428.580112,14.300127,65.830416,3.89451,0
9.515141,199.081317,9082.816175,5.97655,367.230792,501.446834,12.877123,55.77069,3.812888,0
5.488314,135.802362,21485.153195,8.187416,280.603287,441.331137,14.860263,88.287346,5.066786,0
7.012981,199.235299,20892.860437,7.243046,335.059084,427.563776,14.253961,66.294268,4.048306,1
7.539882,185.825975,21575.245221,7.442999,333.07963,444.116633,15.830565,49.067977,4.531594,0
6.927718,197.762405,22065.646859,7.030291,332.180342,425.092008,14.524919,64.762702,3.968056,0
7.215879,194.787935,22070.628641,7.15477,334.083374,432.709884,14.477302,66.595079,3.945077,0
6.93803,196.028909,21324.041077,6.996991,336.265022,429.801064,14.562759,65.889617,3.952461,0
7.037089,197.096638,21500.633385,7.00744,334.73628,426.989038,13.963989,66.94562,3.930803,0
7.006073,194.884304,22429.6907,7.178242,332.342146,433.140342,14.29651,66.798772,4.027031,1
6.96021,196.171557,21982.324505,7.115246,334.468884,430.454713,14.41015,66.257127,3.951124,0
7.09601,195.598274,21372.035793,7.258294,334.764279,426.940152,14.588083,65.589538,3.93265,0
7.069547,197.967571,22047.397001,7.144779,332.744357,426.072707,14.343905,65.94585,3.914654,0
7.344976,182.306942,5689.804405,6.76435,373.872785,360.184473,20.483902,73.488981,3.418763,0
7.148353,195.9833,23270.419936,7.156396,331.535974,423.597901,14.339371,67.333442,3.993643,1
7.080871,195.285056,21731.049456,7.186252,330.93918,427.976575,14.487779,66.402461,4.161641,1
7.065892,196.295469,22364.787023,7.187024,329.722335,420.417202,14.333806,66.832757,3.978842,1
6.283679,205.376624,19905.436548,7.078345,284.206021,471.904032,18.02716,64.362608,4.480771,0
7.060236,197.084212,21928.822062,7.056055,335.242373,423.56206,14.273093,66.404347,3.942322,0
7.186141,195.448325,21721.797258,7.144913,335.363499,430.646143,14.495968,65.624252,3.920926,0
7.098292,195.070219,21256.076072,7.054075,333.546845,429.699227,14.538008,65.629063,4.000096,0
7.161481,195.314903,22019.057835,7.124393,332.713797,430.255649,14.443078,66.915945,3.944527,0
7.038459,194.172222,22779.611732,7.294903,333.929334,425.465682,14.313305,66.500213,3.935622,1
6.816663,195.336383,21690.504116,7.067932,335.227331,420.402791,14.364579,67.028564,3.946098,0
7.142795,195.873058,23247.501237,7.203369,330.291017,423.019433,14.525952,67.005738,3.963397,1
7.060917,196.898288,23025.092241,7.205378,329.304414,430.163852,14.291967,67.172086,4.044448,1
7.144667,194.169966,21813.150486,7.201421,330.952167,427.210207,14.340982,65.882205,3.988421,1
7.135703,196.331129,22101.367875,7.186347,336.728492,425.237131,14.267046,66.609163,3.978069,1
7.009922,196.322208,22686.031595,7.023708,331.134408,422.916965,14.10447,67.953775,4.010637,1
7.280404,198.955179,22065.91826,7.017228,334.253351,428.125752,14.288906,65.526329,3.920859,0
7.052474,195.237056,22363.206445,7.203194,328.782473,430.837806,14.522981,67.752606,4.011047,1
6.910404,196.945796,20499.900507,7.048967,335.311212,421.566525,14.804636,66.346186,3.994387,0
7.159387,196.859351,21347.207171,7.111604,333.299338,427.164867,14.49071,67.022799,3.952747,0
7.352146,208.324476,13714.832635,8.21924,352.849847,336.912934,20.846445,69.437225,5.864498,1
7.061619,195.294314,22278.953773,7.314669,332.526137,427.519359,14.29157,65.615893,3.929867,1
7.106374,197.46997,22907.193963,7.147836,335.697914,423.87471,14.547105,66.590832,3.941313,1
7.153846,194.932131,22543.824374,7.225272,331.341624,433.561952,14.568341,65.958976,4.030816,1
5.174346,234.328569,11746.607522,6.961265,314.9868,407.102302,13.77168,36.183536,3.689145,0
7.196333,196.376724,21247.571861,7.172621,335.26511,423.979638,14.354944,66.878665,3.929081,0
7.12646,197.77589,22279.973504,7.231934,336.667251,423.269744,14.106469,67.006393,4.009279,0
5.913957,215.497882,13086.643934,7.78475,334.686178,283.401406,14.68358,55.326369,5.648606,1
7.181461,197.317817,21888.008105,7.260976,335.24186,429.553212,14.381566,66.825251,3.962498,1
7.140506,196.243636,21919.419053,7.090776,337.13121,421.771792,14.447113,65.441963,3.882538,0
7.137369,197.692533,22414.443127,7.11019,334.886431,425.113704,14.371711,66.097562,3.978103,1
7.091689,193.845263,22688.085464,7.169209,328.851087,426.803509,14.523469,66.0384,3.916072,1
7.066854,194.314391,21888.001789,7.2856,333.212897,428.248628,14.080971,67.053059,3.968903,1
7.172654,196.157816,21328.793662,7.076225,335.72873,426.016981,14.050502,68.808415,4.001683,0
7.220985,192.845038,23053.761707,7.261509,329.8562,426.901819,14.240046,66.073539,3.9981,1
7.160292,197.812839,21596.940264,7.2233,328.554433,420.501733,14.187955,65.831818,3.967887,1
7.051461,197.306553,22527.948102,7.316793,330.435996,420.390812,14.230546,66.118655,4.001579,1
7.268174,195.385206,22141.392125,7.194865,331.215663,433.548145,14.192026,67.705679,4.035023,1
7.16076,197.922254,21415.570412,7.164338,330.098854,419.880191,14.519198,65.031663,3.963803,1
6.569054,208.731454,29123.708304,6.765118,327.697541,308.08605,12.360292,65.750173,4.204699,1
7.047616,196.545012,22537.445234,7.21104,334.492906,431.159915,14.366926,67.148623,3.963249,1
7.112241,193.799137,21666.277402,7.072881,336.763777,423.865883,14.591664,67.198829,3.955455,0
7.223681,196.4402,22458.687176,7.256286,332.553707,424.282707,14.351677,66.277494,3.97102,1
7.121745,195.331652,22380.791041,7.142902,334.68239,433.738358,14.048409,66.564892,3.905242,1
7.05224,192.792963,21201.967954,7.075154,334.579342,426.386303,14.1635,65.894323,3.976408,0
7.107813,197.762005,21762.182603,7.179757,331.977231,420.280162,14.390785,67.142862,3.986166,1
7.168066,196.10292,22624.768379,7.112968,332.670241,425.410828,13.945972,66.869181,3.912027,1
7.058182,194.479981,22023.612664,7.230178,331.999855,427.689404,14.36033,65.295836,3.899234,0
7.048125,197.079798,21593.630338,7.176385,333.573149,433.081128,14.510105,67.595345,3.954418,0
7.58377,217.283262,36343.407055,8.532726,375.964391,393.877683,17.442301,77.722257,3.642289,0
7.002099,196.833583,21453.990513,7.07927,331.314115,425.921775,14.285437,66.598313,3.960652,0
7.108609,191.221469,21830.911589,7.009591,333.370482,431.891682,14.381604,65.867411,3.963298,0
7.178995,195.922331,22679.098936,7.115869,329.585494,421.250012,14.739985,66.416188,4.051562,1
7.314819,197.645471,23025.882402,7.237661,329.783175,432.801045,14.158338,65.591621,3.973834,1
7.270457,197.334881,23114.964423,7.13428,331.079403,429.304092,14.246534,66.743415,3.993501,1
7.937392,170.445328,6626.376426,5.117364,372.625257,316.022466,23.135952,73.786211,4.270851,0
6.790838,271.601212,14348.572924,9.923315,368.842011,610.62955,9.386799,91.402112,3.43828,1
7.227109,196.361649,22298.712048,6.998076,332.47355,427.696784,14.296217,66.522088,3.965906,1
6.998983,194.246721,22339.805033,7.152687,327.676901,429.093162,14.371486,67.582174,3.960803,1
7.070332,196.749342,21284.836871,7.208488,334.864721,425.113829,14.401136,65.579407,3.970858,0
7.186722,196.44995,22496.040961,7.176232,334.7499,423.76331,14.599915,66.674131,3.926327,0
6.948754,197.318729,22075.937604,7.121984,334.653253,434.846211,14.886819,67.274643,3.900999,0
7.123465,195.819294,21324.702125,7.15027,334.850782,429.156213,14.387684,66.746091,3.942798,0
7.057772,198.265516,22011.122511,7.0975,328.361488,434.884006,14.338683,66.632735,3.969561,1
7.123303,191.831838,21708.15525,7.233595,333.198721,430.002406,14.277354,65.343396,3.929614,1
7.020088,197.738726,21328.87082,7.006266,334.032349,433.820895,14.349989,66.344661,4.050121,0
7.101125,196.636889,21213.884256,7.135048,335.017797,424.245763,14.531677,66.880875,3.993705,0
6.997152,193.458515,21386.423204,7.240022,336.85286,425.935229,14.656572,66.081172,3.961213,0
7.15894,195.403897,22987.583615,7.239055,329.292367,425.792777,14.222872,67.750224,3.972592,1
7.098813,194.489884,22934.102851,7.289041,331.420434,428.565523,14.338258,65.670705,3.973008,1
7.034756,196.579638,21609.237058,7.076276,336.743921,429.426648,14.42073,65.17473,3.909593,0
7.134775,195.724392,22413.958226,7.128403,330.073531,429.069872,14.804329,66.189392,4.007902,1
7.180042,194.28604,21295.47968,7.226642,333.332494,424.391049,14.744951,67.105761,4.008748,0
7.106172,194.807346,22577.115806,7.208648,329.259939,421.827111,14.358594,67.284327,3.958723,1
7.063463,199.437711,22388.733551,7.09982,336.213484,428.235956,14.309456,65.998945,4.038445,1
7.002072,197.880705,22098.965109,7.346135,331.830064,417.277454,14.344526,67.150913,3.998391,1
6.955971,193.713576,22203.700051,7.092521,331.368417,429.121812,14.414165,66.823903,4.034106,1
7.064067,194.437268,22442.637214,7.163278,335.411984,415.882056,14.463245,66.704094,3.960011,1
7.21041,195.34341,21008.053396,7.033652,334.097526,422.189306,14.45379,64.630864,4.011932,0
6.968974,195.599482,21807.303615,7.010066,333.325787,430.098006,14.080245,65.668265,3.977937,0
7.494212,210.347276,29252.501112,5.922704,339.846577,445.061231,16.917113,84.868548,5.492705,0
7.038719,197.721616,22538.57161,7.378831,331.17951,423.718947,14.417113,66.062339,3.949003,1
7.12572,194.753929,22742.870895,7.123737,332.361194,426.849735,14.319685,68.019451,3.911049,1
7.156461,197.909683,22010.864246,7.098769,333.445642,433.891416,14.405972,67.150791,4.006898,1
7.60875,192.856644,25410.811872,5.955008,283.802967,432.209545,12.796347,81.103792,4.627464,1
7.008131,194.30787,22269.634304,7.125308,336.264537,427.588578,14.293003,65.865778,3.924299,0
7.068358,196.57553,21468.932981,7.12575,335.700516,430.448971,14.092432,64.664746,4.043611,0
6.907383,193.983214,21226.655507,7.130465,333.9071,420.621732,14.407022,64.799073,4.035842,1
7.148956,193.755751,22127.932381,7.209618,330.207014,424.024698,14.081309,66.258015,4.019166,1
7.072206,194.450182,21470.485675,7.023477,335.264012,429.624212,14.545403,67.596917,4.029672,0
7.007841,195.228408,21903.125969,7.266502,332.829964,429.002298,14.31999,66.089223,3.978905,1
7.049895,195.750965,23551.887031,7.342619,328.552776,426.081937,14.191804,66.243165,4.056591,1
7.125503,195.596817,22619.600244,7.210307,333.847263,427.576806,14.301573,67.555273,3.983557,1
6.818906,195.419695,21853.156486,7.230822,330.00718,429.218801,14.557865,66.737974,3.945275,0
7.021169,195.193242,20782.647524,7.196,333.935141,422.895326,14.197117,66.322603,3.957653,0
8.575939,215.136721,15778.729396,7.532773,316.95949,359.830073,14.944675,79.463992,4.002129,0
7.102052,196.128468,22074.353483,7.21285,334.490562,425.546328,14.16439,66.232359,4.012478,1
9.17787,163.274828,20868.331219,7.72604,320.421432,426.994393,10.214275,62.430926,3.10877,0
7.145515,197.222115,22114.54616,7.141921,334.081413,426.286901,14.04972,68.206904,4.062097,1
7.063213,195.15637,21804.03847,6.992465,333.855527,428.577567,14.458799,64.645354,3.996221,0
7.127003,197.503292,22714.392028,7.16472,333.060106,423.256142,14.22482,65.605861,4.024419,1
7.245501,199.974868,21748.467819,7.121134,334.098545,424.749234,14.365703,67.346488,3.998674,1
7.128547,196.590944,21222.179662,7.146869,330.277771,431.936129,14.465862,66.301094,3.975412,0
7.081585,195.69592,22301.070975,7.021155,333.067154,429.922148,14.432514,65.831776,3.954707,0
7.012731,197.022699,21717.619856,7.112068,335.111572,425.936384,14.332277,67.290381,3.95634,0
7.16911,195.945668,22275.181767,7.17319,333.057014,418.775711,14.052253,67.527971,4.049677,1
7.091732,197.113046,23187.444899,7.282086,331.327914,428.094119,14.345617,66.259055,3.967536,1
7.017033,196.732219,21658.129516,7.267015,332.70575,431.366206,14.507582,65.6714,4.030318,1
7.238761,198.020969,22426.579563,7.356811,328.027019,429.951464,14.351778,67.014951,4.02995,1
8.248703,201.338857,24912.879705,7.877666,389.088844,415.683448,12.842048,51.859151,3.540532,0
7.011972,194.264812,20690.350762,7.203727,339.413425,427.274542,14.494744,64.824481,4.004252,0
7.09047,190.391289,23391.624817,7.24224,330.388957,419.315261,14.302787,66.711542,4.034039,1
7.153675,194.987057,22416.576337,7.210764,331.575029,422.648462,14.484636,66.044279,4.042052,1
7.036812,197.36503,21710.353386,7.237635,333.653282,429.680106,14.425635,65.33327,3.981353,0
7.105342,194.564842,22235.178196,7.203567,333.69565,425.968737,14.389598,67.903116,4.025645,1
7.070856,196.306981,21859.160789,7.149664,332.420887,428.657864,14.251461,65.09612,3.954949,0
7.052686,199.084739,22441.598015,7.220275,331.54125,424.321503,13.884073,65.664962,4.017162,1
7.002229,197.609195,21475.564305,6.930561,333.413306,425.321252,14.130893,66.697712,3.905108,0
7.008531,193.079717,21422.486465,7.029766,334.556517,423.669503,14.414773,66.155351,3.942151,0
7.096002,197.477399,23172.962669,7.096567,332.036741,421.692759,14.354606,67.766132,3.981512,1
7.047361,195.288961,22643.04692,7.139315,336.671744,416.858408,14.280423,67.068947,3.989486,1
7.103338,194.360376,21403.776408,7.032241,332.761483,427.678678,14.354984,65.984472,4.031834,0
7.131668,194.877454,23535.486042,7.146156,333.333999,419.460166,14.391179,65.691889,4.063533,1
7.186745,195.006594,21820.595667,7.289988,334.947034,427.504637,14.20164,65.79535,3.935463,0
6.946435,194.534128,22054.063547,7.008589,332.717822,426.233689,14.41675,66.598142,3.910658,0
7.0957,194.354262,22270.953768,7.123511,332.315761,425.226308,14.314923,66.844231,3.985865,1
8.285395,196.552068,19096.822369,7.357857,342.936881,388.941163,14.151473,73.187013,5.438488,0
7.10131,196.310475,21976.378486,7.039226,333.347521,425.497263,14.578624,66.957022,4.00505,0
7.198843,196.169369,21977.427487,7.110745,332.540592,426.258466,14.474022,66.574726,3.959925,0
7.230322,195.564908,21806.097553,7.09061,336.600796,428.467064,14.736414,67.956483,3.966026,0
7.115876,194.811283,22301.604836,7.247822,330.478537,422.734206,14.273149,65.772513,3.958532,1
7.128814,196.241775,22776.959427,7.23518,335.839389,422.058516,14.461188,67.382271,3.959173,1
7.204326,195.808811,21094.356571,7.042689,332.604528,429.463429,14.337105,66.312541,3.899789,0
7.043316,197.092264,22581.444135,7.229639,337.867009,427.456743,13.957795,67.674061,4.004036,1
6.924635,195.340184,21904.020564,7.124415,335.362613,425.61778,14.429321,65.886084,3.994953,0
7.266848,194.62816,23285.055654,7.133835,337.198636,422.206718,14.187753,66.773757,3.961532,1
7.008597,196.793587,22185.690711,7.001939,338.164577,431.111039,14.476746,65.846788,3.976047,0
7.071773,195.143485,21902.910944,7.05003,332.191341,426.552272,14.374638,65.536226,3.842308,0
7.248003,194.417295,23069.746036,7.260246,329.393367,418.725703,14.268448,65.786527,3.965618,1
7.218228,195.868402,21320.356631,7.045682,331.466915,427.476943,14.403118,66.507543,4.03293,0
7.127239,194.600402,22599.170472,7.219995,335.341798,429.578003,14.29008,67.47178,3.977736,1
6.956565,197.496432,21656.456273,7.042748,334.255522,428.276587,14.450483,65.767927,3.950659,0
6.981208,198.248649,21166.487941,7.10683,333.077116,432.859255,14.214976,65.829945,3.965704,0
7.080027,196.658634,22222.004861,7.201221,333.748423,432.418462,14.11265,68.334279,3.969875,1
7.189081,194.043587,21779.539594,7.10417,330.864194,426.276913,14.114171,65.54077,3.950945,0
7.039807,197.222439,22593.868912,7.124846,333.337831,424.528071,14.586845,66.02961,4.034358,1
7.025817,196.080595,21172.888165,7.060995,332.74541,429.329878,14.2827,65.802812,3.927568,0
7.169709,194.089292,22116.974776,7.189721,331.914442,426.996836,14.324912,67.174722,3.92734,1
7.041091,199.135764,22556.692258,7.132043,333.270285,433.485963,14.331903,67.444495,4.015782,1
6.937184,195.007702,21776.420737,7.105778,331.04453,423.871742,14.389799,67.222243,4.00577,0
5.324942,280.089655,35344.658047,13.043806,180.206746,392.421496,10.50482,55.084668,4.427138,1
7.140776,194.63924,22476.290114,7.142503,331.871733,431.734883,14.572361,66.428105,3.976626,1
7.126678,198.120774,21920.831499,7.082247,333.396436,423.352026,14.450557,66.464737,3.96452,0
7.124684,198.117082,22331.6777,7.122756,334.290521,429.814267,14.438015,66.601123,4.024805,0
7.021337,196.442048,21793.423989,6.997842,333.107191,427.753734,14.451204,66.253809,3.874996,0
7.190846,194.849415,22560.262284,7.166801,331.546755,425.108917,14.288403,65.900791,4.013706,1
7.164215,195.408985,21901.81518,7.203183,332.522707,430.789432,14.220926,65.9157,3.952779,0
6.944122,192.126541,21778.967882,7.019048,332.178871,428.554895,14.331575,66.059626,3.961771,0
7.09484,195.753751,21805.804412,7.154579,332.226661,426.619828,14.491982,65.279931,3.915667,0
6.990075,195.628622,20763.424001,7.004382,334.409351,431.557784,14.291551,66.905436,3.922392,0
7.070677,196.944833,22163.857179,7.145393,334.807831,431.469253,14.184694,66.928158,3.956133,1
6.986167,195.697053,22618.510458,7.247336,332.281796,421.441663,14.488176,66.371929,3.950818,0
7.06491,194.248925,22044.884035,7.209538,329.656905,430.866081,14.561245,66.619161,3.989306,1
7.134044,196.777899,22359.165455,7.340771,334.134573,431.694314,14.484168,66.842948,3.9177,1
7.055192,198.077734,21288.132995,7.107845,335.249128,428.515267,14.322297,65.485228,3.961051,0
8.522568,208.133,16446.32805,6.729775,372.503843,346.374598,12.002178,80.758618,3.358284,0
7.027991,195.72816,22093.90557,7.09319,337.672535,427.674129,14.673206,66.842447,3.922296,0
7.167911,198.681564,23326.789077,7.315129,331.167104,429.49448,14.474789,65.998094,3.963747,1
6.989085,191.660383,21816.601442,7.243052,334.194593,426.907963,14.259591,65.646641,3.889662,0
6.916826,210.860439,29263.554069,6.011611,252.23133,392.363586,12.89221,77.07978,4.598622,1
7.108029,195.66755,22238.191675,7.229637,332.632239,425.828899,14.53505,68.439155,4.055463,1
7.101072,194.916854,21367.59924,7.006596,333.688825,430.580681,14.584831,67.49409,4.021268,0
7.213741,198.355342,22784.708444,7.182729,336.241722,426.860466,14.231733,66.88082,3.933849,1
7.045833,194.941909,21886.14731,7.16,337.013514,424.13089,14.537786,65.260462,3.960844,0
7.137768,195.088465,22410.169244,7.257499,328.726929,426.890946,14.023634,66.891522,3.96161,1
7.074564,197.380659,22005.204604,7.179662,331.777922,428.079183,14.578238,66.902457,3.995553,1
7.162122,198.499459,22104.801324,7.131446,332.215753,426.450423,14.073453,66.894466,3.962948,1
7.00277,198.725366,22574.249443,7.284748,334.583077,424.263058,14.234626,66.679334,3.931675,1
7.176916,199.256503,22296.791218,7.149584,332.586194,422.187384,14.246546,67.569148,3.95434,1
7.20843,196.399308,21614.871899,7.082318,336.802696,422.863863,14.577262,65.537618,3.927514,0
7.063839,196.323629,22081.001034,7.132693,333.236717,426.010587,14.283479,66.814038,3.952038,0
4.695516,198.910488,24767.167109,7.87975,353.484674,512.841874,19.957513,44.34568,4.641738,0
3.975753,135.891978,17430.841944,6.305788,373.486425,344.398912,15.62431,68.370968,3.666824,1
7.227298,193.60526,21775.037848,7.11591,332.634087,423.607618,14.293538,67.017077,3.989024,1
7.040972,195.20313,20910.390596,6.937562,336.537327,424.497217,14.272554,65.133361,3.984347,0
3.434856,185.342961,22690.244404,8.150954,309.217651,398.37013,10.03495,55.947322,5.38951,0
7.052644,196.415535,22253.265039,7.122233,331.485887,429.156317,14.132847,66.406156,3.994776,1
7.144129,192.832611,22540.310761,7.239806,333.893274,428.217774,14.408097,65.059618,3.909232,0
7.098853,194.593255,22350.383006,7.267091,329.006438,425.035138,14.376022,66.025952,3.947644,1
7.157613,194.231946,21574.060125,7.11181,332.391173,421.612119,14.208847,65.959803,3.983652,1
7.059007,194.927788,22509.535116,7.107119,332.80464,423.176588,14.149517,66.277226,3.89458,1
6.718249,197.617494,21043.626929,6.630675,337.038752,641.525845,15.554506,63.684352,4.488904,1
8.977822,198.996287,20225.642923,7.569518,352.685843,492.097825,19.621923,64.177232,3.2,1
7.173465,198.766336,22669.180337,7.196026,335.117236,411.535655,14.137114,65.395993,4.053078,1
7.168879,194.228671,21865.957815,7.226583,331.749754,430.125168,14.299797,65.709144,4.025,1
7.146688,197.625433,22376.643899,7.140391,330.651699,422.382359,14.173678,65.865039,4.001092,1
7.052131,197.199428,21787.946064,7.211848,337.115235,426.824172,14.562185,65.568196,3.906575,0
7.022535,200.199813,22019.30528,7.171575,336.415649,426.276662,14.384179,65.98448,3.998706,0
7.131929,193.794945,21521.323107,7.049819,333.601722,422.201102,14.565098,66.124135,3.894302,0
5.033774,155.321478,34971.807483,7.121477,320.115497,500.637326,18.312499,63.193306,3.244948,0
6.954852,199.412971,21689.866934,7.127074,334.397917,421.531653,14.436107,66.815295,3.956965,0
7.034499,196.685977,21957.088138,7.017472,334.602079,429.312232,14.410205,64.421021,3.915649,0
7.203907,194.918174,21424.038085,6.954771,333.97474,421.955812,14.536077,65.701521,3.889186,0
7.080695,195.843072,22830.879664,7.135038,335.575678,429.276813,14.210385,66.90497,3.976513,1
7.075464,196.46695,21337.851009,7.173038,334.50089,426.773414,14.70329,66.507394,3.981066,0
8.875642,228.921587,28487.708598,5.318732,351.960723,474.772519,14.68397,52.57886,4.006992,0
7.001154,195.184314,21506.346641,7.18154,334.075055,425.362955,14.194704,66.578635,3.912425,0
7.140609,194.064101,22817.49875,7.385982,329.58892,428.199756,14.275833,66.382885,4.009963,1
6.273806,191.850396,15130.154368,5.112751,349.94953,538.203713,12.383597,52.097687,4.510405,0
7.102773,195.744865,21343.227591,7.198306,334.866832,418.764559,14.448185,66.41571,3.939906,0
7.075109,200.606336,22051.440545,7.149938,330.24695,428.630932,14.207418,66.631415,3.992938,1
7.310774,196.690641,22112.851052,7.157404,334.712431,427.269985,14.311651,67.338368,4.012287,1
7.124006,195.178631,22166.570469,7.19274,331.714925,421.779293,14.580267,67.47668,3.995884,1
7.053397,193.428461,21185.106658,7.073865,335.207485,420.442697,14.290277,66.760917,3.972336,1
7.123952,195.215959,21906.373795,7.268689,336.198287,424.858995,14.382738,64.798167,4.049802,1
7.206803,194.884816,21986.302795,7.229325,334.727446,422.596195,13.947864,68.663309,3.979351,1
7.094284,195.507826,22208.304232,7.190418,334.739093,419.865412,14.255502,66.795734,4.088885,1
7.078282,196.209231,21842.096616,7.043046,333.816857,425.260296,14.505131,67.037452,3.970324,0
7.130112,194.827328,21814.618916,7.229342,336.106092,421.103726,14.455256,65.151093,3.955348,0
6.96583,194.669986,21471.633849,6.972567,332.903009,425.743951,14.083766,66.519342,4.058858,0
7.16505,197.039419,22346.653929,7.082694,333.024332,424.73889,14.739014,66.969835,3.905155,0
7.072509,197.438418,21975.143137,7.218562,333.704409,422.25008,14.464171,68.10987,3.952422,1
7.129566,195.066282,22031.230215,7.067881,331.813733,429.292993,14.55978,67.180739,3.983894,0
7.103342,198.589923,22437.570992,6.989172,329.583875,421.29467,14.43803,67.355182,4.051647,1
6.975484,196.292432,21347.282523,7.144052,334.077504,427.904362,14.217759,66.446976,3.867645,0
7.213131,191.934893,22877.268395,7.23394,336.647944,425.887371,14.257094,66.962167,4.016707,1
7.118573,195.060709,22770.666173,7.1558,331.026597,435.071482,14.425732,67.348546,4.061705,1
7.066179,194.214292,23139.893437,7.261914,331.36917,427.8702,14.210377,67.426691,3.956002,1
5.547576,182.644736,27417.998043,9.58609,378.526141,596.650495,11.565242,78.878604,4.448671,1
7.066454,195.121612,21807.775655,7.16626,333.960772,429.183105,14.555457,65.17188,3.951273,0
7.101279,193.60965,22286.517515,7.068594,330.145661,430.004712,14.273223,66.469228,3.95542,1
7.153772,195.328392,22558.519474,7.202467,336.224067,419.984696,14.162436,66.253146,4.005547,1
7.038169,197.728013,21586.019633,7.120777,336.482793,421.958187,14.252317,65.592682,4.011818,0
5.744068,173.850882,28391.998185,7.01733,355.461589,336.061803,16.89518,65.447362,3.171655,0
7.267882,199.134092,22487.126434,7.237686,336.293613,422.386041,14.092362,68.24747,4.018961,1
7.12761,195.846439,21603.660844,6.900407,331.988552,428.155247,14.508443,66.22798,3.980561,0
7.110287,194.783411,21664.5324,7.119249,330.30114,426.703676,14.696501,65.942408,3.940767,0
7.004562,192.728873,22157.337049,7.11284,331.887937,425.934678,13.806243,65.7146,3.999317,1
7.098837,196.097066,22842.446745,7.204726,331.09548,424.282884,14.611483,68.260777,4.025735,1
6.715719,195.190599,19966.744697,7.744696,354.208923,411.795503,17.323081,67.981741,2.443008,0
6.565634,159.729363,19044.680071,6.693214,283.514672,393.625173,18.207137,67.054119,2.770948,0
6.989814,221.000235,20769.519636,8.361019,307.523159,326.58636,12.286237,62.768615,4.808583,0
7.123209,197.168904,22809.148506,7.16832,335.836154,427.949691,13.936193,67.197826,3.995927,1
7.180686,194.776786,21541.398387,7.133061,332.042101,426.251525,14.839872,65.715662,3.951412,1
4.857803,222.39999,15668.273618,7.90079,320.394529,417.804063,15.530563,84.228774,3.966571,1
7.237588,196.12525,21459.225223,7.18945,332.428428,433.577975,14.176026,65.764604,4.026971,1
7.005415,196.37156,21692.579785,7.13945,333.995276,428.899056,14.171047,67.119582,3.958122,0
7.094172,197.454454,21376.29346,7.122141,334.717984,424.750745,14.457417,64.91251,3.919031,0
7.065185,196.63843,21566.803348,7.140233,330.868593,430.814553,14.726606,66.949402,3.956328,0
6.93861,197.542813,21252.527491,7.211892,334.895131,428.551313,14.103319,66.331841,3.903571,0
7.217499,197.782529,22326.540255,7.092855,334.567277,427.839803,14.348285,66.188621,3.959873,1
7.170053,195.693542,22629.173122,7.173563,331.592837,423.883725,14.291952,65.170366,4.020673,1
7.056922,194.888535,21946.821938,6.98906,337.033288,429.254485,14.416864,66.958666,4.017911,0
8.85412,222.965198,19258.803073,5.696064,395.728541,467.088442,10.454029,73.779007,3.46135,0
6.99282,193.841916,21512.139109,7.090177,333.710015,428.873749,14.087629,65.390455,3.87172,0
7.087673,196.491617,21578.054544,7.098602,333.951721,428.418278,14.480366,66.529301,3.95304,0
6.927703,195.321817,21620.842036,7.085272,332.553867,432.855503,14.40199,66.171809,3.994867,0
7.054544,198.745726,21559.384857,7.060908,335.624758,436.564564,14.578949,66.230338,3.93589,0
7.077111,194.399863,22012.367343,7.304806,334.906959,422.219411,14.462035,67.323924,4.0694,1
6.676137,192.685849,27468.98017,5.809436,281.406871,299.886997,12.237608,46.069213,4.336648,1
7.064563,198.735968,22392.185525,7.204853,333.328576,423.564232,14.360335,66.121241,4.026754,1
7.186051,196.540723,22585.27649,7.213617,332.16287,420.170157,14.212374,66.951082,3.983554,1
7.16024,194.962067,21270.210064,7.069031,333.367064,429.566123,14.253035,64.870904,3.924123,0
7.047625,195.162333,21706.776702,7.099144,334.838452,431.226737,14.165919,65.989511,3.916748,0
7.096269,197.509384,21746.033731,7.030948,331.871409,429.434795,14.75175,65.243308,3.919065,0
6.747415,250.419555,24539.713165,2.397985,358.229866,339.34474,15.35729,59.99077,3.377451,1
7.03034,193.877464,22287.69736,7.144688,333.218986,427.368099,14.663546,66.729728,3.975125,0
9.809996,139.118703,16819.423179,7.791982,361.028039,438.179247,10.951138,34.537409,5.538201,0
7.13191,199.117648,22453.789393,7.3944,330.891101,432.110173,14.014951,66.627698,4.02876,1
7.152536,194.937546,22100.513156,7.221344,331.856787,420.570462,14.682356,66.514437,3.985724,1
7.037873,192.392059,22165.710521,7.092825,331.478899,426.300119,14.573846,67.267252,3.988434,1
7.14391,192.064991,22933.839846,7.189078,336.098181,420.789581,14.187792,67.211565,3.958058,1
6.957571,197.605576,20675.15828,7.050445,328.493791,431.107741,14.358555,65.230849,3.854623,0
6.175165,193.282602,32875.192057,10.896663,337.506211,414.902017,12.997823,69.867382,3.341369,0
7.127986,197.062291,22885.668213,7.131853,332.937699,420.694466,14.400498,67.038866,3.950305,1
7.092212,196.885466,23125.718452,7.236722,328.934317,430.671897,14.140668,67.17659,3.968159,1
8.969697,195.744765,9049.682595,7.467068,396.453568,378.528511,17.757697,114.208671,3.983099,0
6.997766,194.409204,21518.417999,7.156188,334.056965,422.801365,14.410083,66.365708,3.947537,0
7.14771,196.212975,23542.358172,7.121815,330.955645,426.250747,14.22809,67.247256,3.965896,1
7.225643,195.818061,22638.87602,7.169583,332.029907,424.427859,14.242332,67.289465,3.977684,1
7.115084,198.889354,22436.566072,7.204284,330.424394,428.842591,14.204734,66.467197,3.968214,1
7.148838,193.185347,21738.588887,7.200484,333.21229,427.618856,14.385566,67.858474,4.091197,1
7.024852,197.190587,21916.596503,7.109858,334.226372,421.561743,14.440486,66.459145,3.882816,0
8.594217,228.160901,29706.234224,5.92446,257.14865,517.844674,15.963752,52.950023,4.489545,1
7.102625,194.193667,22043.671107,6.994564,333.392904,432.883003,14.278062,64.779548,3.944069,0
5.757089,148.989146,32415.733624,9.17856,319.222936,407.741713,12.120956,42.218845,3.730185,1
7.069593,195.765032,21940.527957,7.038702,332.574265,430.294058,14.194084,66.278581,3.952004,1
6.947411,194.963612,21772.89329,7.196284,333.539264,419.055246,14.146502,66.044154,3.900713,0
7.031805,195.839429,22502.99045,7.143804,335.438615,428.783385,13.999825,65.558926,3.946612,0
7.137029,194.78379,21917.222953,7.218859,334.33359,423.520303,14.165577,66.200009,4.013958,1
7.00974,194.550944,21284.03177,7.129147,336.763007,423.593085,14.166092,65.253747,3.907156,0
7.176259,195.779848,22147.498609,7.331769,334.005641,425.682301,14.304269,66.428165,3.956628,1
7.011279,195.51436,21551.449913,7.072599,333.841901,418.208524,14.342169,67.473334,3.944432,0
7.054349,194.247509,22493.787976,7.060499,334.069962,429.019396,14.34448,66.81285,4.005712,1
7.010306,195.318729,21637.291452,6.882178,334.76732,426.471379,14.626676,66.075243,3.937822,0
7.066353,194.771685,21884.584728,7.175841,333.036273,424.33208,14.284134,67.101648,3.94644,0
7.16394,194.788249,23032.572612,7.204959,329.806997,427.140195,14.312254,68.115003,3.972956,1
7.092085,194.324744,21451.383315,7.168967,333.243689,422.382022,14.61322,65.748024,4.006908,0
7.682872,180.701375,12105.721934,5.396716,296.238877,469.835626,15.831763,61.802095,3.778607,0
7.145621,196.073974,21658.110439,7.084189,330.939436,425.482046,14.158975,66.230482,3.917335,0
7.821971,157.181545,23318.187976,9.08404,324.851659,294.636531,17.186766,72.568376,3.532958,1
7.117027,199.049128,22617.240562,7.181501,330.051789,426.886083,14.266459,67.01624,4.016897,1
7.127416,193.610216,22702.880135,7.045684,328.602051,427.317309,14.136519,66.339882,3.975499,1
7.152071,196.640712,22856.419544,7.215715,336.073636,422.146831,13.924955,67.102225,3.96207,1
7.146396,194.892853,21607.34099,7.157771,333.421775,426.769338,14.420728,66.606334,3.94477,0
7.037096,193.989367,21478.94687,7.143655,335.714136,426.125819,14.577017,66.070503,3.993312,0
7.166558,192.323631,21831.838622,7.175181,333.398766,428.426278,14.078923,66.971739,3.950069,0
7.286162,194.795547,21679.42599,7.221635,334.221473,428.739379,14.521429,66.109592,3.980027,0
7.201865,196.388756,22615.42197,7.263277,329.87988,425.991858,14.151985,66.806228,3.991795,1
7.400239,218.824813,8136.071591,6.286358,310.76116,518.732778,15.186342,50.837013,4.88012,0
7.203384,198.595642,22378.736334,7.233522,329.39815,419.569929,14.288687,66.678394,3.996631,1
7.031671,194.207489,22950.071835,7.160399,332.845727,423.029116,14.128826,66.688957,4.061008,1
7.106119,194.758207,22401.285791,7.201647,330.039525,425.580031,14.482429,66.078247,3.954003,1
6.981249,197.019241,21541.805072,7.040294,334.965484,431.581223,14.399418,66.739342,3.913596,0
7.157247,196.109177,23102.436325,7.110286,333.031533,422.958328,14.409679,67.247205,3.93259,1
7.016503,195.378509,22022.740734,6.978334,336.125872,427.974254,14.504411,66.335169,3.958024,0
9.112786,205.941072,20868.627979,6.96279,330.93429,422.039495,16.128976,77.79653,4.567088,0
7.209138,196.292323,22341.733585,7.091993,335.981316,432.366902,14.407798,65.640018,3.949526,0
7.001238,193.971256,21445.457823,7.201634,333.876138,419.672367,14.301505,67.718124,4.017836,0
6.96462,196.883579,21848.221526,7.245549,336.945175,422.443123,14.205431,66.716134,4.018035,1
7.247722,194.731814,22677.260438,7.091132,329.883833,426.302087,14.150344,66.220129,4.014932,1
7.138015,195.305352,21555.401355,7.226219,334.185878,425.714281,14.483871,67.460577,3.954887,0
7.05909,195.968404,21917.137501,7.033513,332.197929,425.166994,14.623679,66.086236,3.98175,0
7.109463,195.501431,21542.085325,7.285463,334.208245,430.222867,14.048902,64.940685,3.934796,1
7.065803,196.864648,21420.670868,7.052396,337.180341,422.536657,14.462048,66.492665,3.99644,1
7.066676,195.324272,22132.653482,7.189628,330.798081,417.2551,14.655313,66.931389,4.030048,1
7.129657,196.040004,21171.513279,7.3132,332.156075,431.101228,13.918887,66.402689,3.928422,1
7.078574,194.096382,22172.808327,7.129981,335.419858,423.93812,14.201161,65.559688,3.950659,1
7.055838,195.305082,21826.074552,7.166589,336.854169,427.685251,14.017241,65.104161,3.947375,0
7.226277,196.504925,22376.911237,7.110202,333.289479,425.098131,14.122906,67.51439,4.004362,1
7.081215,194.421099,22396.772629,7.106772,332.592747,427.42,14.777582,66.670095,3.947268,0
7.08167,194.34778,21898.008911,7.040739,336.177143,424.127439,14.396709,66.973893,4.006532,1
7.141235,196.094084,21560.28528,7.068847,331.911415,430.914715,14.309313,64.61154,3.947329,0
7.176113,199.066888,21788.105729,7.16874,335.30172,428.12882,14.426472,67.131916,3.940834,0
7.14499,193.364197,21276.478736,7.059995,330.531337,422.104486,14.524614,66.548448,4.028338,0
7.129299,196.338025,22926.406559,7.068772,331.442869,421.707728,13.892053,67.375645,3.966918,1
6.579969,197.226981,17657.084176,4.506293,290.289894,254.393276,9.847655,73.749716,4.575932,0
5.895146,192.041369,14704.906246,7.905769,305.807737,429.766223,15.018138,44.887598,5.075214,0
7.128295,194.996391,22003.916486,7.206331,333.496007,426.036273,14.214329,66.06591,3.934636,0
7.180779,196.706124,23224.115679,7.088376,333.772615,429.374982,14.429552,67.690839,3.944983,1
7.137327,194.571122,22487.693094,7.345331,332.187668,429.818177,14.236138,66.143244,3.922933,1
7.040941,194.850414,23035.623338,7.155867,326.489641,431.750138,14.167763,67.049304,4.085921,1
7.106726,196.712607,21672.824909,7.131824,333.745709,432.762027,14.383591,67.271676,3.968054,0
7.148143,194.470303,21944.232102,7.203589,330.576062,420.478193,14.314943,66.146494,3.944319,1
7.197635,198.359873,21740.566554,7.059791,333.124895,434.032875,14.687883,65.830016,3.934854,0
7.164877,193.999065,23125.657553,7.112541,335.120428,425.096873,14.140681,66.493275,4.059303,1
7.074406,197.003981,22085.376485,7.043515,329.084533,428.028789,14.156955,67.292755,3.954361,1
5.093675,251.31378,30245.956975,6.71883,267.026093,271.630738,14.882428,70.778408,4.552571,0
7.125382,197.20026,22385.818013,7.091707,330.94957,424.187978,14.33623,66.542321,4.001591,1
7.111785,198.505416,23320.863891,7.008962,330.364588,425.519974,14.436442,67.604699,4.054003,1
7.065368,195.436576,21236.464889,7.209026,334.017864,431.209684,14.4109,67.511478,3.969342,0
6.920389,252.352799,11086.259858,9.993376,285.744758,368.629147,17.120803,43.667082,3.277601,0
7.19304,194.885022,22978.663249,7.184837,330.823726,422.031445,14.260118,65.585483,3.997119,1
7.172527,196.492136,23157.493677,7.351011,328.319931,432.957542,14.251143,67.746335,3.993433,1
7.103223,197.652005,22531.544414,7.220793,336.446032,424.492474,14.380568,66.446324,3.9822,1
7.019737,197.456344,21440.684948,7.118769,331.484795,429.416482,14.235194,66.310953,3.944819,0
7.09141,197.057524,21802.649891,7.09186,335.573271,427.222942,14.400887,67.172356,3.94446,1
7.146031,192.69427,21361.08898,7.034691,332.321807,429.201199,14.44821,66.334094,3.980463,0
7.215133,194.593703,22584.355432,7.339362,334.401071,420.622408,14.16133,65.376793,3.979669,1
8.849703,197.779047,20129.358792,5.182436,329.502104,356.476723,11.882861,45.706793,2.987672,0
7.170462,197.45922,22073.558965,7.228498,335.404975,430.317299,14.216447,68.446356,3.98656,0
6.939165,196.358633,21947.258924,6.997281,333.269756,424.968088,14.513268,66.83935,3.936737,0
7.06068,192.010758,22144.364716,7.14704,337.773712,420.56304,14.429624,66.168078,3.985071,1
8.145632,218.440804,31350.275765,5.50765,334.644887,376.669878,14.886305,52.415775,4.307548,0
7.225447,196.356529,22228.404905,7.14171,323.861852,426.427796,14.492021,67.366515,3.964599,1
7.074537,197.10209,21411.351036,7.127895,333.035526,433.436749,14.309692,64.736059,3.972408,0
7.262034,192.29525,21763.755295,7.156396,332.042458,427.811649,14.359192,66.822714,3.984509,1
7.91667,201.455808,39431.252632,7.525441,276.20692,432.589996,17.821922,70.239601,4.275193,1
7.12324,194.913806,20702.842893,7.053162,334.009488,428.507613,14.317594,65.877933,3.941682,0
11.180284,227.231469,25484.508491,9.0772,404.041635,563.885481,17.927806,71.976601,4.370562,0
7.03451,197.874615,22285.685041,7.119958,337.021249,423.17285,14.448633,66.064536,3.955286,1
7.048165,197.27456,22440.040174,7.163923,330.274025,421.323671,14.214805,67.686671,3.927398,1
6.800406,198.068367,22259.365049,7.137073,336.241752,424.868634,14.31653,66.485228,3.872093,0
4.922045,197.287207,38494.720246,9.144953,383.239138,357.470704,13.125942,61.86458,2.291695,0
7.123453,197.909233,21150.856752,7.073708,332.503584,425.90331,14.53167,66.370376,3.954148,0
7.152835,196.346395,22066.486477,7.178069,333.432532,422.612268,14.099761,66.56357,4.048689,1
7.131016,193.164593,22173.045779,7.20397,328.756495,429.927911,14.095174,66.506548,3.974014,1
5.198225,173.119821,11178.403544,5.893458,343.209876,390.065616,14.160899,65.433008,3.807318,0
7.011807,196.459395,22468.064336,7.259017,330.440789,420.098918,14.189982,65.483516,4.042063,1
7.074041,198.495641,21811.718057,7.258154,332.569004,431.531894,14.373023,66.715627,4.015401,1
5.58247,172.331584,23512.837957,8.011316,364.483422,452.080765,16.472045,95.045658,4.048113,0
5.651934,139.049917,16575.82126,7.857856,390.537656,418.543238,13.269004,66.076223,3.872027,0
5.500187,254.672705,21082.852044,8.369354,347.816514,469.795375,13.496404,60.045867,4.178479,1
6.969732,195.632467,21806.635853,7.283781,331.584819,418.228709,14.548452,66.51146,3.9245,0
7.046312,198.151676,22020.987272,6.968969,333.600418,422.352075,14.189243,66.233648,3.996431,0
6.988511,196.350154,22159.411836,7.18884,333.756956,423.973501,14.38004,66.985126,3.882161,0
7.011581,197.285574,22100.32349,7.058374,333.745549,421.11132,14.446048,65.984923,3.869629,0
6.933344,195.588276,22901.890964,7.161031,329.530833,419.536094,14.076939,68.274226,3.942184,1
7.04007,197.771207,22120.259616,7.051559,334.128271,429.974775,14.279717,67.277559,4.006697,0
7.087163,196.935304,23179.019553,7.15336,332.209221,435.590571,14.265793,66.872877,4.001031,1
7.151277,199.810521,21388.922874,7.108178,334.741939,422.195503,14.436113,67.394445,3.927296,0
7.016745,197.357917,21144.93111,7.083068,331.792939,428.052696,14.428385,65.782312,3.925396,0
7.069004,198.737735,21820.821542,7.142816,331.168675,421.128831,14.363527,66.5462,4.056647,0
7.022306,197.972283,22060.162106,7.115107,333.528998,425.089955,14.496729,67.305824,4.027226,0
7.148033,195.344441,22086.320642,7.074861,334.049797,419.05469,14.547629,66.462186,3.966932,0
8.764496,210.851346,15978.036559,8.043354,328.759844,324.047375,12.128377,59.789163,5.790838,1
7.051196,196.573594,21867.374662,7.025497,334.525717,425.061309,14.428436,66.570633,3.971792,0
7.10693,196.505478,22413.831974,7.13085,331.468969,423.578271,14.131403,66.949557,4.009443,1
7.113795,194.547738,21622.861426,7.085877,328.947909,423.788681,14.139044,66.658357,3.969848,1
7.034344,197.316183,20961.182296,7.152977,334.659023,432.3361,14.475307,65.305207,4.008799,0
6.971889,194.720086,21763.014805,7.117566,334.442243,431.35738,14.318381,65.483537,3.929027,0
7.045534,195.671918,21660.540896,7.146873,332.138938,428.085564,14.258101,67.766274,3.937617,1
7.046199,196.137159,21978.856623,7.107,327.338065,425.210157,14.274496,66.6532,4.007284,1
6.971839,193.923369,21051.227462,7.082673,331.531182,430.645012,14.443625,65.328626,4.007189,0
7.15129,193.433322,22252.017059,7.367557,334.888054,418.817244,14.684949,67.415482,3.957511,1
7.176026,198.515816,22378.299434,6.977722,333.770676,423.278639,14.061034,65.666411,3.94806,1
7.100386,198.297593,22360.509579,7.296624,333.160228,425.328645,14.468397,66.559023,3.959849,1
8.817403,175.754971,23173.31953,6.730861,367.154184,552.074544,7.733109,91.443356,3.864098,0
7.211343,197.982628,22416.996577,7.124086,330.638949,424.784089,14.167814,66.951103,4.068353,1
6.769769,178.331753,16980.258481,7.051697,369.906278,299.404977,18.703657,62.868527,3.846612,1
7.06738,196.195699,21106.411973,6.928895,333.637395,429.291633,14.460066,66.257435,3.85598,0
8.37628,248.132861,27824.190483,7.100523,343.057975,433.449899,18.658886,53.30376,5.703963,0
7.104483,196.345981,21569.626151,7.241561,335.864565,431.400926,14.383064,66.482314,3.930757,0
7.074023,196.038128,23064.151802,7.080512,331.675878,429.527833,14.167937,67.488879,3.95113,1
7.070721,196.008627,21133.907144,7.093191,332.209682,423.741064,13.97957,66.990431,3.926513,0
7.018432,194.911777,22417.953606,7.150045,324.868274,427.82873,14.123465,65.945844,3.966867,1
6.942453,196.505893,21238.728252,7.079459,336.992125,431.776461,14.206089,66.097916,3.933331,0
7.198187,196.690521,21541.129707,7.218444,331.954353,425.989141,14.596148,66.559011,3.883898,0
7.099246,194.45394,22319.458776,7.101141,332.478714,429.773673,14.443875,67.542837,3.955298,1
6.953039,192.81017,20903.043084,7.128458,334.943828,425.50253,14.606365,65.942532,3.936202,0
7.093864,195.605872,23208.839842,7.12194,330.241962,419.831379,14.491819,67.651606,3.949149,1
7.143171,197.246438,22914.232727,7.289715,329.57231,426.306859,14.28752,67.83773,3.987882,1
6.989398,197.811017,23334.32839,7.312274,334.829375,424.325886,14.114317,66.863575,4.000994,1
4.991397,141.622395,44499.72871,8.260928,335.50983,534.711455,15.350873,62.896558,3.926599,0
7.153408,193.072847,21394.329859,7.016312,333.398739,424.580036,14.470987,66.854073,3.951522,0
7.088869,194.46338,21552.477239,7.127959,335.138923,428.295657,14.236069,66.463611,3.995458,0
7.175647,196.615357,22476.501328,7.094062,331.979528,422.445799,14.648388,68.069555,3.969742,0
7.067947,199.12513,22269.329195,7.095534,335.301441,424.885295,14.366108,67.683724,3.938166,1
7.091856,196.973697,22378.084621,7.201568,335.124955,419.635803,14.262347,67.482188,4.009409,1
7.129938,196.650128,21365.430767,7.03407,332.39166,424.092801,14.479219,66.513689,3.989513,0
7.037915,195.776411,22503.591736,7.225667,330.595337,423.015276,14.460836,65.679066,3.947624,1
7.091202,196.838046,21891.127459,7.123581,332.43114,421.013149,14.422497,66.49583,3.982154,0
6.917858,200.705505,27651.609099,6.529774,321.696455,453.63751,11.283387,91.942181,5.544167,1
7.075439,198.242388,21860.725562,7.12888,332.38754,422.222755,14.417751,67.479012,4.037902,1
7.056717,196.467004,21765.045402,7.041364,333.625492,425.85284,14.267437,67.388909,3.9319,0
7.091013,193.952465,21755.948579,7.018761,334.249411,425.54231,14.355185,66.74034,4.010345,0
7.13444,199.618886,22853.9062,7.076955,334.032117,431.672752,14.22723,66.80322,4.011992,1
7.010021,200.557263,21718.340146,7.07425,331.065147,426.121894,14.594254,65.545099,3.895143,0
7.100458,195.711113,21632.426702,7.12216,334.055707,426.139092,14.313079,65.983091,3.938876,0
7.15966,196.502631,22186.32329,7.169413,332.216348,422.870406,14.041156,66.875202,4.024143,1
7.182304,198.811969,22123.635502,7.08768,334.01336,431.885206,14.30004,66.956015,4.005068,0
7.142633,194.122748,21845.875567,7.156021,335.449286,434.255197,14.126107,66.824006,3.976513,0
6.664935,218.770008,16477.350806,7.325001,299.846523,412.308588,17.192685,41.035789,4.502138,0
7.161223,194.14958,22224.264972,7.220914,332.883215,426.874231,13.872894,67.828213,3.926233,1
8.02522,213.519722,15457.498662,7.66954,318.114395,376.314446,9.422745,55.459551,4.134943,1
7.112447,193.517607,23175.647743,7.214538,335.904677,429.232574,14.02541,66.218993,4.018249,1
6.971882,201.687662,21901.470177,7.073026,333.903215,429.175815,14.772022,67.790668,3.980496,0
7.135256,196.054786,22977.056157,7.166008,330.874925,434.354133,14.111191,67.3587,3.926536,1
7.022937,195.991658,21974.813567,7.091516,336.67619,423.910783,14.422685,66.664202,3.848735,0
7.160703,194.806749,22205.25037,6.919554,333.24698,421.229754,14.433997,66.849331,4.003569,1
7.006062,197.732926,21460.382024,6.994814,332.902505,426.633565,14.297429,66.119575,4.011055,0
6.140878,197.87609,26687.874483,7.587196,329.231853,548.072761,15.83633,41.263648,5.35946,0
7.176865,194.902041,21878.153269,7.087302,333.866068,421.697805,14.181984,66.534066,3.946174,0
6.246118,199.098973,27001.335319,7.808013,296.923626,478.745945,17.128023,84.798956,4.755158,0
7.069442,197.796087,20621.440145,7.006933,332.372282,426.715156,14.524038,66.417663,3.958219,0
7.05764,195.198533,22203.800356,7.10969,333.381424,430.966338,14.273944,65.092695,3.939876,0
6.906115,196.476585,20999.023305,7.215902,333.178125,428.728756,14.694403,65.541373,3.987925,0
7.035858,197.368321,22440.516197,7.283479,331.968742,426.288356,14.453571,67.720652,3.972861,1
7.09519,198.785379,22040.439957,7.188123,333.916184,425.290771,14.336446,66.812734,4.003625,1
7.082341,194.97228,22588.426609,7.164076,332.817922,428.69224,14.356579,66.670004,3.962553,1
7.046115,196.613632,21987.381439,7.21922,330.878693,421.144855,14.65315,65.696879,3.985108,0
7.171293,200.917652,22045.172519,6.969718,331.357883,426.029658,14.172223,65.187662,3.942248,1
7.21322,193.171469,22818.044828,7.362493,332.036475,425.413324,14.648755,64.666612,3.957963,1
7.162976,197.278442,22241.625367,7.299864,327.807573,421.224519,14.351485,65.903565,3.965744,1
7.291023,194.37001,22164.732037,7.198669,332.193008,430.114207,14.264434,66.708943,3.988191,1
5.728824,197.191839,12932.590386,5.684492,280.932064,445.069636,14.176501,68.124809,4.412174,1
7.05625,196.693915,21031.044945,7.175687,335.793255,422.922993,14.43778,65.911922,4.004286,0
7.01991,193.734102,23154.954525,7.055241,330.361787,420.219028,14.510773,66.193519,3.989447,1
6.903327,193.850437,22616.568965,7.124826,335.239748,425.785197,14.206106,66.443876,3.908399,1
9.587895,195.837105,11351.861856,6.267476,366.428928,323.794862,13.068242,37.35308,4.666917,0
7.099318,193.411466,22338.98621,7.365797,333.048369,425.111025,14.307188,67.102765,3.99104,1
7.007688,196.015837,21124.446914,7.084644,334.831158,423.672764,14.753992,65.911317,3.999464,0
7.164801,197.027466,22864.935029,7.125716,332.09749,422.624376,14.235497,65.071096,4.031284,1
7.125295,193.956122,21609.437849,7.078825,329.879977,431.71844,14.212794,65.540123,3.975884,0
7.06631,194.199476,21852.573271,7.211897,331.81943,425.81306,14.307456,68.082677,4.064448,1
7.027555,194.754758,21479.224908,7.070217,331.817777,426.938211,14.179053,67.697098,3.882192,0
5.870616,186.178376,18909.846006,8.494235,328.747315,427.182531,13.300024,52.162419,3.728785,0
6.952742,196.464934,22171.051549,7.252112,333.391459,428.478694,14.304875,66.875544,4.019111,1
7.786735,192.179739,28086.873498,7.157952,329.708632,327.380488,10.681349,52.415462,1.961475,0
7.117646,196.302382,21628.284557,7.049641,334.159694,427.864501,14.456878,66.271514,3.917707,0
7.049111,197.033067,22409.310722,7.330166,333.394046,423.624613,14.440641,66.257902,3.965486,1
7.142681,193.579144,22491.118315,7.20055,331.227569,428.984957,14.198986,66.579144,4.042457,1
7.111685,196.100243,22390.841996,7.13004,333.379157,433.140816,14.533462,65.464963,3.957846,0
7.207889,194.924523,21353.597755,7.06832,335.829486,428.504473,14.765976,66.580834,4.025074,0
7.057776,194.12109,21706.577656,7.114777,336.703596,424.793574,14.266285,66.443528,3.973442,0
6.992204,197.076101,21620.832678,7.118926,337.565363,429.313814,14.272131,67.104318,3.993146,0
7.177926,196.223037,21592.836939,7.248087,336.645291,425.839948,14.424332,66.144206,3.904923,1
7.064639,198.882462,21470.527676,7.088035,333.74704,428.178324,14.347836,67.156914,4.006073,0
5.771199,155.050893,24909.44401,6.531261,297.009319,313.701934,11.704789,85.688303,4.688959,0
6.996324,195.346325,22012.409042,7.295734,336.457597,426.009379,14.332881,66.760251,3.940038,1
7.10583,195.300675,21290.079684,7.017329,332.193342,428.591785,14.445401,67.040906,3.903576,0
5.500277,263.68316,19911.2249,4.755312,366.942743,435.865696,12.761184,51.439894,5.147536,1
7.114998,194.356651,22423.375271,7.263961,327.82369,427.074064,14.464821,65.540134,3.98203,1
7.143413,198.150902,22657.453397,7.185708,332.395322,428.232761,14.066745,67.156163,4.026231,1
7.269015,197.802102,21857.2395,7.065776,333.043072,434.736075,14.154463,66.454409,4.000059,0
8.357613,163.098254,34989.047081,7.696943,317.30168,404.492614,8.271882,67.598158,4.366242,1
7.165602,195.145256,22344.000978,7.143729,331.084964,430.848344,14.421042,66.253922,3.995682,1
7.151635,200.178275,22278.036142,7.24518,335.04349,420.326349,14.481422,67.52,4.025205,1
6.859324,179.068805,27567.37567,5.885557,227.34846,391.599708,14.670555,83.469934,4.50198,1
7.042084,194.415806,22170.54943,7.17592,331.130044,422.331323,14.230036,67.153685,3.982262,1
9.999807,215.108978,33462.034221,6.194122,365.895338,373.936756,13.792034,77.872102,2.659978,0
5.596628,177.213792,17925.35212,8.43547,303.734166,552.308706,10.339986,57.820611,5.235111,0
7.081962,197.102646,22160.83513,7.117849,333.197997,420.45351,14.126844,65.312013,3.948463,1
7.087331,191.094888,22297.805856,7.134678,329.575446,427.071796,14.193223,67.896558,3.988221,1
7.058184,194.393902,22842.62014,7.262811,332.999953,423.50686,14.315221,66.219308,3.996971,1
7.104564,193.368022,21958.829394,7.066352,334.144297,418.395169,14.260341,67.419407,3.978167,1
7.148239,195.519128,21876.902901,7.119467,333.216864,422.551028,14.340256,66.581667,3.960295,1
7.132039,191.737155,23026.743772,7.228063,329.351351,416.373834,14.361157,68.013677,4.010457,1
7.142034,195.567536,22318.614013,7.097972,332.984077,422.78122,14.505685,66.691692,3.992442,0
7.124901,195.818712,22801.131856,7.101891,333.160685,426.650818,14.278481,66.898348,3.942077,1
7.191085,195.847368,21525.374363,7.154426,333.128199,428.468294,14.077044,68.171625,3.955705,1
7.190777,193.928649,21285.72205,7.100608,334.492392,430.891154,14.457928,66.177014,3.983483,0
9.318614,317.338124,24497.873935,7.597452,357.167217,476.510384,12.032377,68.59983,4.642719,1
6.979946,194.267654,22154.917417,7.137002,330.505884,416.484718,14.16011,67.165385,4.04316,1
7.148591,198.0578,22793.602205,7.2789,329.893159,424.025894,14.147176,67.103903,3.954423,1
7.158408,193.687456,20894.601586,7.057518,333.449845,430.353696,14.473659,66.735502,3.988256,0
6.080993,182.413992,31321.082426,7.624239,318.722751,498.454099,11.398007,81.288382,2.091787,1
7.109251,196.369892,22077.752031,7.054237,336.777196,424.770781,14.349103,66.044284,3.994147,0
7.058187,193.8934,22496.655145,7.197155,332.036441,427.548441,14.199862,68.127435,4.02886,1
7.064519,196.307463,22176.003068,7.353407,328.424908,424.116336,14.532437,65.831812,3.975293,1
7.118382,195.67624,21559.866138,7.005285,336.207822,417.730729,14.385403,66.152756,3.913872,0
6.942569,196.992553,21360.107677,7.176974,330.79778,425.478621,14.342231,65.914474,4.036792,0
6.987523,199.08179,22303.028364,7.052458,331.675347,426.320586,14.276873,66.812618,3.956474,0
9.380658,265.061216,15156.789834,4.271545,333.334469,503.170615,11.28641,99.016003,4.034349,0
6.799376,239.05768,7986.493239,10.36568,419.881175,373.232137,18.828594,43.440644,3.819985,1
6.86527,196.197528,21328.014926,7.078616,334.285402,426.247475,14.450047,66.282825,3.993519,0
7.174724,195.906229,21153.408014,6.993962,337.194521,429.170675,14.378777,66.772301,3.986022,0
7.281163,192.087392,22750.642963,7.115399,330.497188,421.670932,14.150389,65.970887,3.987124,1
7.208903,197.047484,22307.092406,7.16524,333.442098,421.002591,14.042871,67.934236,4.007549,1
7.198583,193.52027,22061.129287,7.136634,333.729338,420.953096,14.171459,64.982631,3.946593,1
6.953767,196.921273,21656.916263,7.070445,332.921637,426.973099,14.282133,67.409247,3.920242,0
6.973995,198.573071,22208.929713,7.139285,331.891664,430.286909,14.617356,67.970993,3.976032,1
7.1328,197.062248,22469.352912,7.192217,330.310672,427.007942,14.346889,66.604815,3.983225,1
9.15966,195.423316,16679.335164,10.110462,301.746411,404.659103,5.196717,55.466759,5.452362,1
7.101664,196.157428,20923.291554,7.223423,334.946369,423.227309,14.683099,66.844318,3.989542,0
7.058757,194.328527,21748.007106,7.370395,331.97145,425.833594,14.468407,66.989746,3.944716,1
7.028878,193.660996,21549.476422,7.057922,334.99855,424.99883,14.444021,65.854466,3.912695,0
7.076071,197.555499,21938.702519,7.148546,336.946343,425.159989,14.644531,66.450829,3.979732,0
7.174569,197.94633,22562.066851,7.126917,333.683987,427.615965,14.379726,66.805071,4.065063,1
7.168896,195.002859,21434.590105,7.161072,332.458024,424.799996,14.29268,67.381799,3.996516,0
7.15298,196.538499,21358.935603,7.044107,336.420263,427.522389,14.424217,66.002207,3.96877,0
6.852899,158.079791,11914.463778,7.634967,386.167384,473.643343,16.939374,62.695471,4.594761,0
7.067175,195.437371,21891.012712,7.156301,331.717946,418.456422,14.351722,65.773785,3.95507,0
7.1423,195.471303,21897.592325,7.122489,332.190052,428.984819,14.26613,66.584987,3.921433,1
7.169382,194.216327,22141.971752,7.238248,331.98791,428.180949,14.392789,65.655962,4.078587,1
7.032559,198.135761,21765.958942,7.129854,332.931288,428.390522,13.844033,66.333758,3.970015,0
7.039399,197.485849,21533.077809,7.108337,336.206899,427.421467,14.704813,67.52178,3.932564,0
6.977307,194.691382,21218.246068,7.050623,331.848924,427.465384,14.603468,67.65844,3.959644,0
7.156236,197.790795,23395.86605,7.231699,333.732853,422.845141,14.296535,67.512016,4.016778,1
6.958111,194.959809,21555.868142,7.070624,335.675147,426.223032,14.328695,65.409206,3.985467,0
6.76806,179.805992,23793.031358,5.332099,333.198191,461.530446,13.557381,60.571241,4.145807,0
7.18262,193.581349,22240.80263,7.257029,331.324844,425.830708,14.259371,66.704636,4.026042,1
6.919953,196.195746,20840.75585,7.010858,336.771301,422.520132,14.37594,66.195961,4.049897,0
6.989867,195.809217,21784.815657,6.973565,335.424641,423.950294,14.529417,66.947356,3.958447,0
7.201345,194.863301,22403.175719,7.236288,332.293142,419.777445,14.239829,67.308625,3.927668,1
7.366915,185.043597,14151.760083,5.584369,324.570459,336.956867,15.233826,49.997034,3.051317,0
7.131557,194.796939,22301.514654,7.215262,330.221012,421.472395,14.430792,68.021091,4.048101,1
4.137045,116.338278,17101.951569,8.65221,322.892252,360.648078,7.848313,70.977001,4.327356,0
7.047778,195.835241,21246.56521,7.101591,333.40349,423.882358,14.367607,66.469221,3.981865,0
7.103738,195.548547,21985.400637,6.985128,336.597891,428.506588,14.661724,64.642525,3.95685,0
7.134139,192.345568,22133.240871,7.153617,331.174643,429.314468,14.332376,65.626131,3.951327,0
7.005759,194.349227,22599.069079,7.056848,333.523502,426.014238,14.397316,65.941711,3.939306,0
7.181032,197.95549,21460.685932,7.181841,334.113338,431.507547,14.389846,65.355801,3.932308,0
7.05875,197.890677,21812.283855,7.113369,331.647562,427.937923,14.603496,65.614897,3.892454,0
6.974675,196.118565,22404.998605,7.324383,331.617897,425.280862,13.985326,66.875377,4.038818,1
7.102471,193.419413,22212.627522,7.277868,330.697065,423.402512,14.275914,66.668273,4.060296,1
9.032661,121.441442,15618.170248,6.157491,372.927456,390.657226,15.030315,63.125617,4.927218,1
7.122785,196.404669,22101.18004,7.120012,334.034842,425.759784,14.39973,65.721309,4.062801,1
6.727185,197.439216,26012.488746,6.952008,346.628735,473.330078,18.437835,69.466289,4.158249,1
7.105486,195.135168,22005.65632,7.076799,331.500882,423.446185,14.310286,65.938842,3.929787,0
7.20738,195.594334,22129.886726,7.09464,335.253624,427.77971,14.348065,65.167768,3.92034,0
3.978285,160.818474,14433.780496,8.410892,311.295329,414.328215,20.771485,78.27324,3.751566,0
7.082117,196.467361,21681.398856,7.281464,335.360959,424.293189,14.238917,66.396857,3.965195,0
7.110841,196.093491,21357.069579,7.129826,330.661299,419.881091,14.307866,66.185582,4.007356,1
7.020473,193.075974,21851.972417,7.2207,337.692023,431.013485,14.155743,67.090604,4.019513,1
7.074514,193.639258,23167.603789,7.287703,331.33058,428.243843,14.071051,66.166335,4.069181,1
8.383762,156.951865,21923.874085,7.656831,379.541641,364.794883,11.773964,62.85578,3.585737,0
7.612517,225.492793,14812.970645,7.982595,356.690174,341.074925,14.994662,55.893916,2.939593,1
6.916125,195.261553,21774.282846,7.036167,334.981507,428.039135,14.277777,67.043723,3.92613,0
7.064789,188.391725,20567.14593,7.443243,360.322976,656.924128,16.274831,84.827183,4.401628,1
7.021018,195.86005,22299.9882,7.173998,332.105862,426.937125,14.497632,64.894024,3.941127,0
7.142238,196.126923,21441.881746,7.096705,333.328174,419.890337,14.264105,67.36029,3.894549,0
7.149475,197.517327,22268.160064,7.130019,329.166278,425.776601,14.436914,67.354825,4.015379,1
7.002557,195.96329,20789.067652,7.094937,333.905997,429.132884,14.54509,65.837383,3.938919,0
7.17266,198.456217,21566.020882,7.118879,334.013176,429.730541,14.436066,65.839481,3.95934,0
7.208118,194.004811,22977.766516,7.122756,331.838997,422.713626,13.944727,66.325754,4.051046,1
7.229867,197.104683,21995.999291,7.105981,338.981012,425.992315,14.429092,66.379474,3.910823,0
7.041314,195.583208,21772.56359,7.099735,333.825645,432.651753,14.155949,65.995427,3.96536,0
7.130875,197.510221,21694.679697,7.259625,332.550127,423.842476,13.903134,66.812574,3.992161,1
7.050984,197.912515,21564.977542,7.070768,334.050536,433.812021,14.37357,66.073892,3.980018,0
6.808486,195.085825,21649.501369,7.066088,332.54178,428.594343,14.696439,65.60515,3.975062,0
7.861178,204.274241,25145.024125,7.923315,338.213803,469.486961,15.99341,86.167298,4.157657,0
6.174884,193.02796,23006.242223,8.098312,340.253354,297.112621,13.475158,78.325227,3.623298,0
7.070774,198.997582,21743.10293,7.201979,333.226041,426.439092,14.167281,66.757645,4.013412,1
7.030957,194.661743,21433.139184,6.970262,334.478806,428.870417,14.233251,67.522634,3.980639,0
7.151351,196.195246,22603.411884,7.251423,332.268182,431.199561,14.119606,67.580103,3.97298,1
8.285072,151.573778,14402.726696,9.05008,303.081838,322.521815,13.652653,114.034946,4.274661,1
7.252252,196.269842,21132.353299,7.122698,331.734886,422.214907,14.55541,65.663842,4.018392,0
7.781664,216.782881,35055.61649,7.784203,306.643336,447.167101,10.609545,36.872086,4.822967,1
7.119803,194.95159,21873.388065,7.229733,330.105059,426.56423,14.293893,66.688133,3.962504,1
7.108551,192.958903,23189.963662,7.254563,332.577332,422.0746,13.915121,66.667455,3.967543,1
7.171601,194.508327,23018.180544,7.201441,332.380977,428.094311,14.292855,67.263951,3.955962,1
7.051878,196.797877,20902.195118,7.158641,336.287399,435.795646,14.729521,66.727132,3.944118,0
7.023343,197.064804,21596.175454,7.107816,334.391259,420.934849,14.304967,66.790597,3.963915,0
7.099469,195.865399,22230.048857,6.985727,330.963453,433.242889,14.306241,65.006023,3.978089,0
7.116732,194.089928,21625.849512,7.155042,333.404663,429.833638,14.358379,66.709227,3.996816,0
7.067834,194.29427,22867.189987,6.986464,332.889939,426.044269,14.192521,66.762173,4.022057,1
7.14542,194.594607,22452.858406,7.121066,335.521369,421.896932,14.35924,65.871446,4.010897,1
7.125155,195.751717,21016.332828,7.13258,331.518194,430.714908,14.442914,66.027372,3.988834,0
7.038126,198.530016,22309.706133,7.30844,330.750753,425.703435,14.0796,66.37679,3.900341,1
7.918039,197.357588,22899.062914,8.283955,295.35107,358.097386,12.957785,71.694351,3.38611,1
7.108943,195.728259,22251.40842,7.125817,332.352609,428.83863,14.42167,65.797483,3.948967,0
7.085906,196.772565,21017.579196,7.201125,335.447776,427.157767,14.782393,67.576895,4.038856,0
7.059914,194.686257,22055.731445,7.304488,335.209391,422.776439,14.28584,66.675785,4.04552,1
6.297846,214.214574,21022.83503,7.258722,331.821977,434.048702,15.872182,64.846905,1.680554,0
7.147387,193.540456,22673.82356,7.237406,329.32155,426.605448,14.318263,66.405226,4.009231,1
7.014822,195.17123,20960.806299,7.100059,332.773017,430.274965,14.669893,66.027973,4.094278,0
7.050582,198.759605,22057.438603,7.052272,327.850341,426.854786,14.463533,67.059024,3.995642,1
7.127185,197.199743,22289.364718,7.24235,330.696049,416.781906,14.512811,67.350298,3.971918,1
7.014164,194.875506,21271.921275,6.950166,330.506676,426.759952,14.16856,65.703151,3.990879,0
7.066599,194.248019,22397.592715,7.06727,333.88582,429.324635,14.449713,66.164096,3.898212,0
7.104621,197.995059,21202.201688,7.228892,332.783937,421.541315,14.338812,66.130771,4.001202,1
6.923307,192.875491,21721.702711,7.231872,333.624605,429.661286,14.162269,67.223737,3.982865,0
5.808239,195.514516,43110.503721,7.368819,281.918918,325.83136,15.047019,51.294792,4.819064,0
5.348214,232.668509,11797.920916,7.816285,312.986753,371.910647,11.97568,65.797023,3.311168,0
7.169842,195.69213,23038.563395,7.07209,332.05257,420.918796,14.314872,67.979543,3.998801,1
7.054177,194.650741,22247.86614,7.163623,335.756492,427.57429,14.559726,65.511261,3.981104,0
7.080491,195.09725,21701.846796,7.061656,333.513058,434.865081,14.477037,65.644897,3.969956,0
7.132532,192.607897,22007.90859,7.095586,336.105987,437.687081,14.270806,65.184391,4.039774,1
9.562406,202.013643,13041.82914,5.820655,327.118824,433.381667,14.139066,63.548993,3.76272,0
7.049991,196.657001,21425.181642,7.136217,334.498115,424.509631,14.52633,66.607563,4.022326,0
7.132211,196.099337,21049.013178,7.094836,334.185121,429.008213,14.2983,65.251599,3.893344,0
7.208346,193.395442,23056.709564,7.185546,330.898075,418.788281,14.377977,65.099985,3.90128,1
7.296348,197.517277,21739.305821,7.206023,333.90123,422.272923,14.345357,65.488841,4.039731,1
7.120335,195.322904,21996.907252,7.185921,328.230367,422.820857,14.216052,66.410239,3.974098,1
7.11472,196.378283,22014.926007,7.187425,332.834978,433.105078,14.316381,67.369595,3.922631,0
7.122646,194.425895,22311.404699,7.110692,335.428263,420.259141,13.93246,65.885648,3.979562,1
7.16846,198.403015,21841.996902,7.113474,331.762095,420.936244,14.211289,66.790395,3.936165,0
7.120248,196.33177,22832.299736,7.132577,333.223795,428.541578,14.29005,68.103734,4.025109,1
7.059177,195.482644,22339.574338,7.141125,335.773467,426.227687,14.156101,66.892618,3.941108,1
7.039554,197.320053,22637.728089,7.159363,333.244792,422.626486,14.300947,65.870062,3.940159,0
7.035601,195.677733,21855.442877,7.179043,338.334145,428.849968,14.10274,67.164472,3.975832,0
7.164333,199.195468,22199.855123,7.142282,333.811987,420.178353,14.24993,65.541934,4.00595,1
7.160853,196.444628,22639.132654,7.162849,333.174204,423.274057,14.366165,66.362369,3.931873,1
7.075519,194.454399,22287.587453,7.150669,332.523492,435.853501,14.347322,66.523423,3.852307,0
7.52993,171.814197,27062.065889,5.029569,378.241782,325.099756,13.786737,97.24135,4.585322,0
7.093428,196.518137,22778.94298,7.202784,334.733938,425.587502,14.097826,66.308673,3.955374,1
7.278426,196.488203,21509.63854,7.166956,336.077159,421.658603,14.302947,65.814558,3.960067,1
7.132458,196.517572,22063.790187,7.108452,331.486449,419.916942,14.45353,66.27412,3.96837,0
7.048108,194.513085,21172.669321,7.086742,335.036087,421.917585,14.022729,65.22373,4.021854,0
8.870278,193.369948,16854.129457,5.180106,318.354612,355.470925,19.032219,58.809199,4.182741,0
7.155651,197.563941,22343.432736,7.125865,331.617212,430.648573,14.445542,66.381846,3.909301,1
7.20472,195.477746,22376.622745,7.188773,331.881443,431.700385,14.502129,66.009571,3.960905,1
7.017071,199.416281,21292.169158,7.179272,332.697921,422.736476,14.205383,65.708103,3.907308,0
7.071206,198.897757,21140.363285,7.190017,333.427135,428.266052,14.545232,66.459919,3.967352,0
7.153786,194.813528,22808.549283,7.060499,328.773412,425.171955,14.048158,66.335102,4.005525,1
7.130032,195.425738,22353.04506,7.031337,332.264076,427.194938,14.319804,66.459098,4.017771,1
7.228418,195.392602,21183.180203,7.009598,335.918563,427.246919,14.261007,66.177679,3.914741,0
7.073956,195.204875,21872.307332,7.200509,333.744402,431.678766,14.459781,64.950446,3.891642,0
7.094424,196.916065,22863.350424,7.165396,335.844297,424.086444,14.42684,66.602971,4.015897,1
7.215527,194.5464,20887.72313,6.984925,332.290737,429.0434,14.245694,66.670201,3.995291,0
7.045687,193.930966,21224.96766,7.161682,334.478767,424.46877,14.23212,66.429145,3.950271,0
10.252816,218.2797,18158.842119,8.657342,349.529568,336.198837,19.442599,82.858272,4.559836,1
7.055902,200.673016,22025.722248,7.110778,333.562575,421.39947,14.284056,66.614514,3.936632,1
7.120465,197.054319,21409.614897,7.068039,334.948924,426.817302,14.463965,64.796521,3.965036,0
9.497261,124.48281,33681.33014,4.814656,427.184508,530.217008,19.970318,49.809841,5.242105,0
7.050795,196.027104,22494.642543,7.108948,326.98546,425.216728,14.221828,67.172003,4.034222,1
7.056012,196.730019,21977.114815,7.010756,333.516821,432.399273,14.269527,66.323235,4.016451,1
5.467401,197.028926,12883.163531,9.264883,347.421266,355.175712,12.762546,67.159532,3.717823,0
7.130588,192.654574,21442.716685,7.262565,329.990365,433.888204,14.27431,68.070157,3.948232,1
7.06592,196.0055,21973.568856,7.04472,331.697551,425.41674,14.616931,66.681972,3.912888,0
7.029323,196.022315,21553.759051,7.081342,332.091932,427.197858,14.404578,64.93728,3.906782,0
6.985535,195.981678,22145.973167,7.295142,334.033387,428.405938,14.117612,66.109992,4.092305,1
6.877528,194.877453,21445.993624,7.129095,334.77911,427.516314,14.35394,67.518289,3.963872,0
7.060686,196.512155,21870.884351,7.053191,332.534493,430.678031,14.385251,65.956904,3.943405,0
7.240272,213.423139,23432.962694,5.927868,328.359206,325.387708,14.033553,60.571081,3.832597,0
5.171434,207.280531,44612.751358,7.287925,300.254258,552.90759,12.723725,52.237736,2.949432,0
6.619775,150.718361,11388.534187,6.80758,370.753469,431.430087,7.710769,73.634278,4.086921,0
7.20482,196.866016,21687.493783,7.084474,334.346553,424.18691,14.379198,66.092165,3.95588,1
6.912608,155.740495,17973.178859,4.916303,275.908228,439.648051,18.380712,55.507468,2.612249,0
7.075917,196.617492,21585.97377,7.077671,335.955993,435.681981,14.219854,65.942639,3.973793,0
7.044431,195.628669,22094.241426,7.033182,335.593108,418.930729,14.606259,66.440553,3.963828,1
7.189008,195.223238,21253.104373,6.893079,334.989217,426.532579,14.272665,66.119821,3.967337,0
7.128155,199.280564,21497.977804,7.180785,334.713077,431.603498,14.246626,64.539467,3.963471,0
6.58545,166.965961,30210.250367,9.508299,340.245766,430.078591,23.234326,72.799917,4.27564,0
7.106678,200.135556,21522.939212,7.184443,334.147994,427.500901,14.183331,67.138765,3.962597,1
6.945835,195.687225,21760.573795,7.150499,334.726096,422.525131,14.520645,65.885888,3.934881,0
4.812434,250.183954,11465.575643,4.362641,398.161904,607.026542,18.210032,62.511467,3.020996,1
7.049771,198.034358,22773.182784,7.203707,334.614311,434.339676,14.31899,66.653922,4.042518,1
5.349997,193.808121,31795.625606,8.217819,327.233388,431.47604,11.776193,55.81651,3.838721,0
7.120522,196.787481,22365.978329,7.215056,334.229012,421.272193,14.246148,69.03389,3.93846,1
6.44907,163.447649,16906.331298,5.152226,283.217329,397.507055,16.787272,82.016058,3.33155,0
7.101889,197.817579,23010.195367,7.118167,334.095934,418.791306,14.104997,67.518732,3.997407,1
7.202803,194.532279,21576.265734,7.142459,331.843357,426.71933,14.543326,66.887727,3.964725,0
7.216534,197.061726,22262.891197,7.179628,334.578506,421.447186,13.987639,66.459807,4.058723,1
7.129484,195.088344,22152.404598,7.182694,333.535684,424.296021,14.141474,67.001862,3.927997,1
7.296038,235.735193,36043.706638,5.196213,377.190666,385.614321,17.052713,89.623551,4.168526,1
7.025598,195.871847,21130.585217,7.099056,334.568615,426.277034,14.375415,66.972034,3.92644,0
7.057239,197.248971,22877.717158,7.217172,332.397099,419.321801,14.309385,66.398198,4.022267,1
7.117136,194.226038,21721.868783,7.198061,333.898338,424.410941,14.491292,66.776368,4.040022,1
7.100767,195.120016,22603.350856,7.239424,333.48996,427.869993,14.099968,66.166479,3.956837,1
7.056935,198.826531,22684.998165,7.092214,335.581156,424.583382,14.10198,66.035235,3.934354,1
7.12632,196.696843,22193.407406,7.263804,331.19463,424.729194,14.081994,67.975525,3.938263,1
7.039908,195.816711,21327.875479,7.136432,335.104954,423.404292,14.488342,66.190542,3.906127,0
6.984708,195.203192,21322.159325,7.203967,334.019834,427.26531,14.637977,67.293735,3.979027,0
5.772718,213.363545,26124.931415,8.630719,273.279448,465.559286,8.006208,59.964334,6.494249,1
7.154576,195.548157,20462.449763,7.087352,336.219965,429.084099,14.417115,67.186414,3.905524,0
7.048129,195.273708,22709.309301,7.171893,333.845315,429.183927,14.314096,66.72133,4.065269,1
7.961721,224.31676,11551.21568,9.492074,367.46601,451.808446,14.911191,79.687039,2.286943,1
7.171222,197.237106,22225.130794,7.336559,335.617758,420.483737,14.231736,67.909739,4.02187,1
5.470982,191.813046,36435.793514,7.369649,323.120036,383.871055,15.881382,52.765049,3.84402,0
7.179906,196.484077,21586.025366,7.119531,329.874162,432.763602,14.212032,67.259072,3.971471,1
7.48678,199.677784,25396.011782,4.960558,342.453546,444.678579,16.115432,43.142016,5.048834,0
7.154751,196.243404,21353.479455,7.063681,334.388028,426.691206,13.968796,66.370004,3.979616,1
5.729303,162.857585,34573.678786,5.654856,415.287072,297.631365,13.990842,76.744677,3.556395,1
6.427365,202.944979,20920.251561,5.527621,338.582354,332.612752,12.809024,75.101334,3.568823,0
9.146558,226.093425,6787.48466,9.241763,319.025809,459.569021,14.110476,80.571146,3.210882,1
5.276324,186.38259,42063.874405,6.862988,319.837985,312.002533,18.964418,71.398976,3.883029,0
7.233878,194.074879,22025.189596,7.08624,337.408624,428.613943,14.492003,65.428612,3.909905,0
7.490787,202.458061,26551.370105,7.120772,312.934025,306.345563,17.99816,67.356079,4.354535,1
7.080667,194.86265,21937.17035,7.058535,333.299815,419.158539,14.573318,66.609674,4.014761,1
7.079728,196.314688,22698.470814,7.109268,333.367204,425.362475,14.451529,65.633133,3.966101,1
7.193161,194.434594,21118.430495,7.092325,332.133323,428.084428,14.411863,66.920448,3.964159,0
6.982075,196.05996,21529.656819,7.005053,334.503455,429.957522,14.147492,66.41302,3.994379,0
5.331799,149.955047,19693.906772,7.14614,336.011908,285.998049,14.298579,46.113763,4.734874,0
6.992492,194.269319,23038.243604,7.196752,334.071752,418.834311,14.340254,66.803036,3.98357,1
7.127481,195.201543,21544.230915,7.211465,334.68149,414.104803,14.60518,65.273271,3.928645,0
6.933654,217.770316,19026.017329,3.117441,317.066842,448.23464,12.943634,76.824752,2.010729,1
7.046107,195.764792,21365.247716,7.189235,334.268249,430.439045,14.449988,66.13917,3.904924,0
6.972938,199.310511,21719.118649,7.179965,333.68312,431.396053,14.37005,67.371241,3.978835,0
7.12681,198.907314,22925.074041,7.160661,333.849388,423.058406,14.105676,67.186964,4.033574,1
7.000163,197.606761,22223.6175,7.109689,334.151867,426.344215,14.656076,66.24026,4.006111,1
7.136707,197.650013,21549.954374,7.114011,334.782067,422.21462,14.467334,67.79773,3.964652,0
7.338826,229.978694,12603.400371,5.975488,351.318826,370.860632,19.389337,79.971647,4.017061,1
7.073465,200.058036,21910.994618,7.104825,337.936985,427.484724,13.938467,65.150672,3.993167,1
7.036523,192.837482,21857.83681,7.17243,331.428796,424.903069,14.244327,67.516287,4.007278,0
7.041192,196.829197,21016.324123,6.990801,332.236732,423.636236,14.450673,65.889211,3.991714,0
7.054716,197.364599,22155.787872,7.19374,335.329294,423.74526,14.472382,66.957697,3.959934,0
7.064664,195.752051,23113.647884,7.272255,333.994621,426.452508,14.491779,66.367337,4.013756,1
7.094864,196.122296,21881.804382,7.022529,335.673597,428.493048,14.181148,65.560662,3.957178,0
7.2106,197.33399,22527.554097,7.195187,331.284294,429.888736,14.217937,65.863586,4.032131,1
7.241325,198.838737,21872.978483,7.239628,326.000327,422.529922,14.259214,66.122959,3.969289,1
7.17333,195.866071,23087.363514,7.310033,334.105258,430.64684,14.275806,66.203024,3.976346,1
7.097791,196.364613,21901.042952,7.055244,329.288456,421.001171,14.288728,66.906051,3.989497,1
7.060516,199.439006,21615.731673,7.052972,333.647333,433.525852,14.321428,65.985537,3.978221,0
7.067853,197.368687,21322.99557,7.077044,334.639308,431.102307,14.590471,65.108076,3.903826,0
7.617152,182.689825,33744.166807,6.225933,369.552958,327.228245,14.065597,82.781926,3.422543,1
7.121883,193.460013,22092.248749,7.014326,330.835695,424.84226,14.461859,67.26295,3.872368,0
7.091536,198.677529,22029.217858,7.288106,331.888526,419.354291,13.873801,66.47815,3.95995,1
7.05107,194.426138,22104.860315,7.182366,328.668172,415.315073,13.931634,67.130365,3.977704,1
8.759489,219.92139,33364.918123,5.687072,324.038506,443.548006,17.763343,79.747868,2.889578,0
7.084958,193.538015,21789.392921,7.241094,328.318472,424.942333,14.51288,66.654554,3.975469,1
7.007356,196.852151,22094.687882,7.136129,336.124563,426.061976,14.435934,65.513446,3.977656,0
8.979323,184.309222,24967.322998,6.264584,335.216928,485.583188,8.280181,63.944178,4.264944,0
7.083979,197.735907,22408.91646,7.187928,331.457516,427.841277,14.231899,68.622156,4.064862,1
7.192852,197.983241,22666.070266,7.020399,334.810378,426.426522,14.453154,67.411166,4.02252,1
6.972158,194.012512,21888.165148,7.196295,331.652096,426.651686,14.142103,67.188368,3.956274,0
7.066063,196.026682,21337.029322,7.10126,331.614729,424.196283,14.571807,67.054379,4.02127,0
6.949335,195.959913,21837.212295,7.249125,327.831652,421.592469,14.287814,65.61261,3.980444,1
7.261826,193.665041,21661.065649,7.025609,335.635519,428.626882,14.401457,65.628316,3.955506,0
7.106551,193.692061,22095.596033,7.084548,331.586139,426.773008,14.28091,67.252252,4.024932,1
6.994909,198.17284,21609.984896,7.194862,331.159872,424.317926,14.39209,66.528269,3.949934,0
6.643027,205.233119,20511.36924,5.908111,313.353813,455.693256,16.021941,52.153472,3.709989,0
7.094939,196.330898,22068.194997,7.145387,330.116242,420.299322,14.510165,66.855425,4.056647,1
7.161182,196.598972,22253.716324,7.154265,332.13306,425.837227,14.144643,67.554394,3.99514,1
7.072274,194.974724,21796.07948,7.045736,334.213726,420.285807,14.305163,65.768538,3.931352,0
7.073597,195.058306,23035.831096,7.32821,333.084977,428.445695,14.190197,66.361028,4.020016,1
7.048604,194.856533,21385.855295,7.152672,334.708441,428.494861,14.126815,65.448991,3.928145,0
7.201702,147.711086,37308.994159,5.677451,279.164446,395.976824,13.326125,63.626894,3.88325,1
7.212556,193.24155,21692.374899,7.199869,333.11811,422.403074,14.368401,67.895253,3.988707,1
7.049027,195.999818,21964.055278,6.95489,334.991516,427.152474,14.409234,66.597671,3.913691,0
7.099312,194.807111,22298.14899,7.210095,335.441718,419.435209,14.166864,65.767608,3.98253,1
8.269945,192.003776,11889.217747,8.377233,345.987354,405.340609,17.395662,85.444985,3.07648,0
6.980814,195.812039,21322.413085,7.266432,334.308947,422.043794,14.483558,64.702624,3.927237,0
7.143146,194.298416,22314.115589,7.145737,332.372639,421.486155,14.411763,67.792427,4.001956,1
7.271663,193.896227,21989.425155,7.169866,332.159089,429.978409,14.152413,65.275215,3.943122,0
6.876451,190.844514,21979.031671,5.630558,363.831706,349.186085,9.551732,68.410851,4.545341,1
7.105463,197.468553,21716.987548,7.179085,335.471095,432.734391,14.384565,65.351903,3.983823,0
7.776044,215.533795,38895.356136,7.764668,342.262498,349.431099,6.124625,65.83299,5.425946,1
5.652501,187.83118,25868.598733,3.523714,338.028852,456.259791,15.496329,72.545256,4.856444,1
7.296507,192.928515,21925.88345,7.212891,331.989233,426.569847,14.369947,67.217246,3.987758,1
7.155043,195.335063,21365.833983,7.10159,335.698756,433.715977,14.488246,66.752569,3.940921,0
8.813505,236.392817,40684.390014,6.608775,303.529818,278.355123,14.576057,72.872697,4.24246,1
7.126508,196.759329,22615.007105,7.166337,329.867867,418.272319,14.217397,66.660914,4.048311,1
7.026349,197.044465,21585.41237,7.040772,328.629672,431.429083,14.32598,66.623265,3.990916,0
9.406326,216.762159,27948.589445,6.156111,355.473035,347.983078,16.340715,32.108292,3.097278,0
7.170203,194.672471,20552.184368,7.096368,335.538154,429.077401,14.176988,66.193472,3.979588,0
7.121429,197.269531,21637.36252,7.138299,337.430612,429.625164,14.578075,64.927927,3.995861,0
5.361212,171.315543,24709.728858,4.184891,366.814979,490.658747,15.122672,33.119613,1.812529,1
7.121679,197.69633,21317.328726,7.097072,331.671379,427.565363,14.449348,66.965906,3.950644,0
7.318863,194.236735,22586.932926,7.070564,332.116481,427.841482,14.494564,67.196958,3.939632,1
7.08854,196.872961,22854.201807,7.271145,334.219214,427.978383,14.579969,66.627628,3.97097,1
6.755669,209.362075,13821.55616,7.557415,334.619524,499.070909,19.339143,81.098746,3.959518,0
6.905952,195.920657,22105.742696,7.126452,334.991148,426.001169,14.366346,66.764751,4.014825,0
7.155301,197.150976,21694.55315,7.097318,333.483404,429.500868,14.382123,67.241991,4.015529,1
7.329235,195.931732,22692.342716,7.298292,333.86702,429.510864,13.943075,67.302234,4.13635,1
7.024909,197.622865,22153.446847,7.183716,334.86885,428.268255,14.174428,66.84858,4.004531,0
7.040263,193.314947,22133.957565,7.069336,333.675278,422.33634,14.492545,67.032708,4.015161,0
7.140878,195.382816,21804.015396,7.146348,334.840296,422.543656,14.325626,65.805664,3.97552,0
7.173786,195.674823,21923.704126,7.127714,332.566557,427.426869,14.542665,66.18476,3.953366,1
7.061501,197.102151,21925.176462,7.233898,331.810552,428.037893,14.286282,67.546723,4.035161,1
7.123003,196.995813,21588.246734,7.170394,335.318467,421.634672,13.995645,66.379202,4.01517,1
7.057357,194.903107,21496.200677,7.167467,332.71188,433.77306,14.387094,67.336784,3.963355,0
2.538116,100.80652,19872.854854,5.014023,418,420.830866,13.980891,85.943192,2.840097,1
7.133078,196.935661,22915.174372,7.325364,329.733442,422.944546,14.333088,66.55955,3.976743,1
7.032853,194.697808,21540.423645,7.130006,333.82459,426.176634,14.352333,66.266878,3.995144,1
7.137295,196.018047,22143.138885,7.045207,333.286257,430.923769,14.217625,65.74345,3.901583,0
7.175515,195.291011,21458.443797,7.113882,332.566716,429.518839,14.299386,67.090352,3.966782,0
7.18624,197.798294,20958.005309,7.018969,331.551779,432.592972,14.156132,67.40735,3.90413,0
6.940584,197.572302,21948.725003,7.041015,332.719201,435.253285,14.115478,66.295739,3.967002,0
7.063641,194.89829,22119.930069,7.093623,332.234086,427.502357,14.23099,64.535213,4.001036,1
7.05715,196.84955,22076.347833,7.315023,332.830672,430.342856,14.424175,67.250167,4.034213,1
7.146589,196.925909,23663.047025,7.258729,331.302776,422.212584,14.095202,66.758024,4.025067,1
3.148712,142.272084,23257.208834,8.279275,293.1608,391.841303,8.923594,68.316612,3.465638,0
7.155241,196.969439,21473.55795,7.003603,335.017441,431.114858,14.243455,65.754441,3.965328,0
7.140852,196.272135,22156.21905,7.298055,328.842128,434.907427,14.298672,66.099127,3.999073,1
7.142478,194.470483,21834.594677,7.172783,337.729557,429.882448,14.354762,65.671869,3.914495,0
7.035412,196.357475,22080.786434,7.081467,336.70441,426.024498,14.551848,67.034167,3.983357,0
5.665266,162.890083,31883.010307,8.312484,350.681732,550.817564,15.632268,72.457385,4.571824,0
7.112693,192.908979,22095.096935,7.195459,330.452811,422.787455,14.227579,65.312086,3.951455,1
6.972109,196.153574,21734.268912,6.98113,332.853108,425.648337,14.268941,67.741771,4.015736,0
8.121254,200.353696,25412.709742,6.54765,314.090738,411.986987,12.419359,59.763194,4.428312,0
7.689358,221.356885,30253.851103,6.269309,320.478106,529.746529,17.973277,84.696366,4.978556,0
7.004523,196.268712,21353.927133,7.136949,333.507205,423.424907,14.291485,66.465792,3.937562,0
6.984172,195.016305,22598.449257,7.023695,333.543755,421.841663,14.055319,66.010338,3.991648,1
7.106912,194.18408,22669.849585,7.079627,331.35312,428.596782,14.482017,66.769085,3.985236,1
6.934011,194.304107,21791.483654,7.158796,337.245841,425.174155,14.917966,67.227778,3.99515,0
7.088905,194.4444,22361.096076,7.088272,332.467445,431.944175,14.169832,67.469355,3.88542,0
7.102525,192.562023,22120.696675,7.206966,334.323617,425.658533,14.400269,66.779063,4.021372,0
7.189357,196.450277,22815.787242,7.143355,334.018358,429.775184,14.075595,67.075004,4.051746,1
7.134575,198.444213,21391.066804,7.156348,330.946285,430.238325,14.615356,67.220936,4.000891,0
7.061763,195.733886,21523.114889,7.10011,334.484116,430.443022,14.153596,65.651218,3.997129,0
8.801934,225.895468,23659.21152,2.458609,408.417866,446.992465,14.340818,42.800911,3.769832,0
7.116364,195.705662,21966.003837,7.052577,331.864629,427.407704,14.275679,66.545493,3.904141,1
4.9089,161.243192,13516.911495,8.206212,343.305288,535.224517,14.356101,71.444915,4.196429,0
7.139895,197.341352,21959.895745,7.093175,334.519671,427.500196,14.478373,66.376358,3.989906,0
7.025186,193.335321,22640.102689,7.241005,334.73037,423.606814,14.144794,67.333114,4.061967,1
7.064138,194.766996,22067.954486,7.400192,333.673159,422.19399,14.112063,68.488045,4.020595,1
7.150277,195.831312,21954.037971,7.092328,333.209641,426.317065,14.201059,66.010524,3.975972,0
7.129079,196.080865,21644.850493,7.028242,331.921224,427.178684,14.150293,66.832437,3.912872,0
7.070945,192.965147,21455.589669,7.002346,332.994812,426.407828,14.249298,65.329811,3.971757,0
7.040081,198.955946,21725.336244,7.185207,329.53654,419.968104,14.090752,66.802154,3.960807,1
7.126974,194.444769,22843.669788,7.151816,329.528009,424.940962,14.145217,67.821606,3.955723,1
7.029013,195.975771,21449.341159,6.89941,335.927542,419.751411,14.306532,66.208148,3.988027,0
7.149719,196.544471,22010.996793,7.114402,333.220964,426.849844,14.184329,65.736372,4.001966,0
7.018105,199.092586,22910.274646,7.022042,331.360157,427.19557,14.443385,67.195778,4.003548,1
7.064657,196.199664,23039.4727,7.156679,335.142588,431.401557,13.984552,64.708181,4.019757,1
6.629994,209.157022,20487.923825,7.278912,332.877574,524.883329,20.751751,60.236844,3.155214,0
7.197656,197.89164,21506.294001,7.023122,334.424403,432.083584,14.453131,66.279206,4.020589,0
7.136368,195.491197,22381.835059,7.211093,333.963048,427.323971,14.287939,66.658716,3.956995,1
6.548021,278.585105,25508.386949,6.749378,366.871502,497.321753,16.563167,79.323678,3.61186,1
7.093418,195.099542,22058.636154,6.97948,328.573316,426.538737,14.044615,66.826217,3.944732,1
7.080034,196.579914,22625.879668,7.19998,330.316368,429.156461,14.072418,66.462549,3.920211,1
7.174916,195.956241,22060.900848,7.093268,335.933588,424.382026,14.515909,65.35239,3.98893,0
6.93801,196.590834,22437.918577,7.211852,329.536282,427.796253,14.355506,68.082404,3.996451,1
7.114662,198.332789,21152.302625,7.137119,333.63024,433.219462,14.499867,65.75016,3.884744,0
7.118048,194.912427,21381.605823,7.041167,333.996639,427.814924,14.292998,65.960364,4.05459,0
6.792655,241.724453,9094.3133,6.435809,338.521176,361.107537,14.502464,45.428097,1.917754,1
7.127854,198.311775,21120.575909,7.149992,336.926566,423.392243,14.355543,66.105628,3.930935,0
7.12731,193.739274,22541.220202,7.07099,333.548665,426.70149,14.34857,66.312241,3.88796,1
5.655117,146.762023,19271.903123,6.391439,316.495631,469.895002,11.971417,62.004563,4.401152,0
7.090889,197.182406,22120.485756,7.019393,336.032871,424.506017,14.351959,66.781014,3.971267,0
7.130897,194.152762,22016.864715,7.008647,334.986445,420.786395,14.479553,65.50526,3.975159,1
7.088768,196.041786,22111.079979,7.166827,333.231483,428.614578,14.485282,66.489837,3.968207,1
7.046906,195.366154,21308.666446,7.07327,329.967751,434.454714,14.630304,66.118707,3.954048,0
7.261734,198.542121,22932.814794,7.200768,334.664894,419.577177,14.524676,66.372727,4.006912,1
7.08497,193.651683,22247.532804,6.920758,332.916708,428.40787,14.293352,64.95849,3.946025,0
7.131971,197.199432,22623.0438,7.136687,331.672485,421.772458,14.086674,66.355936,3.947809,1
7.134324,193.09439,22081.512214,7.158487,330.015707,420.209362,14.290455,65.837322,4.010353,1
7.081644,196.4044,21496.288482,7.061712,333.92162,431.227821,14.768298,66.229647,3.94014,0
7.218103,196.140928,22667.108929,7.294474,331.053181,427.963492,14.445985,67.595575,3.941474,1
6.788292,182.036895,25661.360539,6.939853,352.344929,419.895888,11.835382,71.436038,4.255948,1
7.072341,193.596237,22260.808282,7.285771,330.68993,423.264436,14.277734,64.787608,3.939746,1
8.581429,186.601621,20590.712114,3.924183,366.1319,384.305698,9.999398,66.693973,3.388448,1
6.998934,195.111263,21442.15795,7.00615,332.144226,422.118548,14.361989,66.0653,3.958275,0
7.002175,194.103981,21997.331538,7.195821,329.65325,425.722697,14.226258,65.592371,3.995344,1
7.064159,195.373494,21300.420369,7.01684,335.118853,429.386957,14.512565,66.185046,3.970296,0
7.128808,196.50712,21599.806828,7.225986,335.679641,423.151488,14.356483,67.368269,4.050858,1
7.225951,195.485936,22111.596691,7.168487,329.660347,425.538375,14.403389,67.589229,4.012805,1
7.170165,197.005884,21905.796498,7.209419,332.965753,432.595492,14.178776,65.842891,3.980948,1
7.019646,197.210904,21085.63724,7.027855,337.998817,427.237171,14.364698,65.494093,3.984869,0
7.024589,195.374714,22135.711779,7.104502,337.139425,426.468604,14.43785,66.164813,3.914493,0
7.016246,193.785979,22819.560574,7.253186,336.877504,421.481055,14.134178,66.613548,3.975543,1
7.302349,193.92355,21690.623553,7.105061,334.898087,426.477612,14.65144,66.388741,3.925236,0
5.287983,245.023461,27733.713099,7.135063,238.844004,464.07485,13.452179,55.642363,3.311034,0
6.969256,194.359146,22078.54625,7.067607,337.107934,429.353503,14.443578,66.131255,3.964531,0
7.013666,197.071081,21823.275186,7.166695,333.055699,426.656293,14.357272,66.790033,4.006925,0
7.71096,181.938126,6552.626314,5.389249,390.596392,516.284083,17.010785,58.241734,4.288947,1
6.39498,220.422389,21051.256907,8.739505,348.04776,353.365418,19.637042,48.709989,4.732003,0
6.92387,194.373971,21645.559858,7.14333,334.18634,429.108303,14.341129,66.178017,3.962374,0
6.150596,169.402776,23890.893358,7.33596,375.80113,373.548215,15.704323,48.299493,4.84752,1
7.02453,196.326373,22802.330745,7.222925,333.686731,429.467183,14.405513,65.937521,4.006505,1
7.09098,196.537324,22073.843054,7.061199,331.284369,425.993217,14.187962,67.442839,4.010334,1
7.004381,195.906952,21720.542366,7.123493,334.910073,429.499078,14.227249,66.640202,3.905628,0
7.04859,195.226579,22528.088965,7.089538,332.996348,420.839123,14.452004,67.023869,4.027771,1
7.028878,195.545776,22157.342682,7.225721,332.038527,437.110448,14.645235,65.471076,3.881558,0
7.01369,198.671373,22856.953681,7.14438,332.299949,426.894917,14.115569,66.811521,4.05958,1
7.054062,194.006602,21088.901388,7.089518,337.404267,423.453881,14.386347,65.978371,3.910532,0
7.022833,195.23185,21790.803336,7.216585,333.411413,429.932826,14.753828,66.632333,3.887556,0
6.750761,207.254505,23642.992597,7.691012,293.78304,446.696939,6.000391,30.900815,2.777726,1
7.098088,197.807281,21639.386811,7.116593,332.479572,421.115361,14.203814,65.616541,3.900407,1
7.085807,196.558495,22670.889363,7.277207,336.464485,419.737766,14.396598,67.507899,3.987283,1
7.038925,196.903569,22188.580813,7.259078,331.646173,432.643715,14.149491,65.835319,3.985933,1
7.131655,195.884085,22071.894394,7.179569,330.968199,422.639348,14.269775,67.604914,4.015995,1
7.015271,199.200636,21719.577797,7.042138,335.022276,431.712156,14.149546,66.281114,3.92942,0
6.945224,220.960041,36438.310876,5.55166,337.963891,367.997977,20.160734,53.007723,4.823082,0
7.191072,196.146045,22491.969026,7.098302,333.653172,429.724086,14.459298,67.35548,4.031701,1
7.148578,194.063155,23082.431443,7.040802,334.080831,418.213767,14.419942,67.73371,4.008214,1
7.067211,193.494056,22260.135742,7.231189,333.135829,425.188613,14.409782,65.602222,3.968462,1
7.245262,196.252745,21611.355238,7.161632,332.739164,430.061002,14.310006,66.262636,4.019754,0
7.145123,194.543196,22191.850709,7.173197,332.975149,419.701814,13.879999,68.116807,3.944826,1
4.704184,169.943914,7028.839617,8.987043,317.829814,289.537529,8.069436,63.664949,4.138994,0
7.262783,197.748536,22362.986175,7.33311,330.53058,426.204337,14.076771,66.529931,3.984254,1
7.182683,197.021091,22260.593173,7.146346,329.540386,432.88277,14.450861,66.35606,4.015939,1
7.101173,196.590148,22313.193491,7.208621,334.053418,417.657825,14.073111,67.312288,3.9786,1
7.09005,196.337607,22508.610745,7.02856,334.378289,421.156953,14.104571,65.4581,3.973482,1
7.163343,197.748594,20888.746049,7.046783,332.970625,422.24122,14.536256,65.956355,3.979191,0
7.076558,196.607259,22501.16463,7.258043,335.064199,431.915194,14.194895,67.222033,4.033572,1
7.072363,195.754791,22268.381269,7.070336,331.595229,426.941933,14.362091,66.096745,4.044734,1
7.041702,195.08336,22574.032312,7.239327,334.205465,416.919995,14.258422,66.584051,3.964928,1
7.071082,195.829827,21174.324645,7.165502,330.695713,426.701365,14.260024,66.348387,3.936846,0
7.222657,195.586953,22825.245416,7.106596,334.291352,423.234419,14.175023,68.412888,3.970562,1
7.148728,196.185131,22010.168645,7.158877,334.257746,421.109551,14.39105,66.281289,3.918997,0
10.415044,167.422581,34535.55385,6.354815,344.309289,491.516712,19.355841,45.104018,4.209137,1
7.068595,195.841819,21254.327134,7.206198,333.316387,421.891939,14.221418,65.060375,3.956767,0
7.083199,197.05283,22410.409508,7.060989,334.660177,423.790062,14.146752,66.880713,3.978817,0
7.091674,193.983144,21778.954015,7.269239,331.352891,425.130323,14.613962,66.203079,3.949388,0
7.05816,194.094527,21916.068847,7.092991,333.418051,425.969522,14.053004,66.041218,3.950191,1
7.048896,198.480735,22798.184168,7.092859,335.684152,426.778941,14.165261,66.54684,3.943829,1
7.048056,195.709297,21947.802784,7.127783,330.882331,418.699058,14.379249,66.483983,3.937328,1
7.23585,193.025876,21593.486534,7.20877,333.805109,424.089153,14.213434,66.971549,3.970568,0
7.156835,193.762193,22672.63438,6.974949,332.039316,420.251861,14.159676,66.708833,3.952177,1
7.125951,197.841741,21831.107664,7.001846,338.16874,427.710181,14.519108,65.902276,3.988309,0
7.131334,194.291184,21840.588917,6.996126,331.745341,418.606164,14.201417,67.708992,3.960135,1
7.069193,196.868841,22368.151375,7.045867,327.224446,429.948811,14.219371,66.522295,3.959865,1
7.013946,193.630397,21612.170089,7.2873,329.636461,427.449181,14.420439,67.725015,3.995965,1
7.281597,192.937737,22082.535723,6.991621,330.202838,428.471872,14.405462,67.278865,4.073719,1
7.143617,194.706109,22943.788179,7.121837,330.6639,428.975138,14.276716,66.992567,3.95555,1
7.123776,196.116342,23010.798019,7.136634,331.810663,426.297141,14.130795,66.704392,3.963632,1
7.146875,196.742285,20997.788081,7.03811,335.328032,425.919485,14.37843,65.688382,3.875355,0
7.127401,194.707775,21793.619271,7.108708,332.394491,429.71624,14.309903,64.62599,3.944346,0
6.96528,162.69945,24312.037798,9.129755,307.759211,490.815521,15.512059,102.695868,3.969318,1
7.121288,195.98589,21623.08123,7.11363,334.901446,426.816267,14.104586,65.972771,3.945018,0
7.182621,196.667291,21894.875684,7.241275,330.969302,432.831526,14.294245,66.776755,4.020786,1
7.000974,196.119355,20913.363172,7.227409,333.764026,429.556173,14.296389,67.113213,4.022538,0
6.948804,198.096106,22050.686164,7.083877,330.458787,424.845651,14.303025,66.093425,3.995694,0
7.192814,196.480865,21973.560326,7.303268,333.010574,431.313617,14.31488,67.161677,3.995746,1
7.09085,197.463163,21545.021074,7.181924,336.242794,428.451079,14.237585,67.562841,3.943422,0
8.885626,171.839777,19113.011912,6.503297,404.104312,399.672556,17.623594,76.831226,2.993301,0
6.94841,192.515016,21555.489512,7.075586,332.641978,427.637732,14.548408,66.086296,3.95928,0
7.070567,195.793499,22697.069715,7.134151,334.070822,421.741675,14.10795,66.838166,4.011637,1
7.102198,195.544573,21917.240996,7.220887,333.583955,426.619813,14.090243,66.5781,3.954367,1
7.040279,196.125271,22693.320792,7.18821,333.084558,438.869266,14.255927,66.487747,3.971485,1
7.357637,197.176454,22218.370839,7.102757,334.728917,420.474212,14.418505,65.911896,3.969727,1
7.012052,198.383324,21954.463069,7.130203,332.473513,427.759081,14.152446,66.84523,3.971007,0
7.067395,192.773867,21771.620029,6.969772,331.980452,430.651738,14.454933,65.739987,3.896155,0
6.21758,189.342225,15155.548989,6.819438,306.8926,297.763685,11.964914,81.386753,3.490002,0
7.021278,195.417688,21996.139644,7.171551,335.694508,423.021767,14.600433,66.707743,3.941844,0
7.210375,193.767967,22838.293042,7.303142,332.444542,425.360066,14.141727,65.982445,3.99408,1
4.713117,209.342051,20070.567792,6.591109,301.965541,354.170181,14.023834,89.650788,3.923356,0
7.13475,196.894816,21572.919367,7.325209,332.055477,422.82984,13.856264,65.467447,4.009098,1
7.009167,197.256503,21653.923596,7.171099,333.22717,431.073834,14.089007,64.366959,3.99274,1
7.045764,197.460396,21380.389052,7.018435,336.902357,432.529402,14.568557,66.762364,3.949692,0
7.107081,195.043184,20805.739526,7.15461,335.439386,420.94618,14.370267,65.689346,3.927739,0
7.152383,196.236378,23060.760191,7.168148,331.651849,423.482124,14.433925,67.135852,3.926519,1
9.792728,161.057881,30249.170845,5.214315,258.038852,413.155466,12.493388,76.22558,3.72912,1
6.983085,194.88234,22830.622174,7.193768,332.837488,423.912675,14.156522,66.627913,3.972953,1
6.782904,197.997304,21955.788012,7.116399,331.508695,434.326874,14.452096,65.775085,3.953114,0
7.215777,197.241049,21528.278832,7.042122,333.945787,429.143955,14.645655,65.859454,3.931424,0
7.161062,193.984451,22173.575985,7.21007,333.585138,422.120662,14.299272,68.350104,4.01452,1
7.064419,194.149702,22686.002779,7.192959,331.506094,423.261517,14.236854,66.844528,4.015932,1
7.063456,197.533675,22684.068573,7.199166,333.257284,424.256745,14.130296,66.959657,3.94116,1
7.350379,193.633367,26736.085567,10.416589,309.416883,557.495685,16.519722,61.077383,3.663922,0
7.120207,196.285238,22582.940476,7.0683,332.384702,420.322537,14.246449,65.549294,3.99137,1
7.01465,195.86787,21985.071244,7.195302,327.643765,431.264913,14.385775,65.685787,3.975661,1
7.062566,195.259312,22412.718078,7.267785,329.595321,420.303608,14.4142,67.143134,3.975085,1
7.091893,197.632179,22649.665685,7.270916,333.589731,430.154217,14.417694,67.091272,3.965423,1
7.146596,196.063681,22104.502809,7.050991,334.008514,424.823398,14.390837,66.607999,3.920899,0
7.059141,196.292519,23078.313991,7.034703,329.259567,423.482698,14.410423,66.998606,4.023243,1
7.108496,195.17531,21436.392336,7.149578,336.140554,429.001934,14.528476,68.118101,3.893929,0
7.369989,236.476721,18998.346823,7.404435,359.930566,357.066203,18.020331,58.271257,3.463852,1
7.230845,177.574803,17864.689386,5.818229,343.593332,367.689992,19.91295,59.303053,5.622018,0
7.061486,196.809391,22678.258746,7.121459,334.007764,418.910638,14.333624,66.685222,4.002224,1
6.514415,198.767351,21218.702871,8.670937,323.596349,413.29045,14.9,79.847843,5.200885,0
7.142708,195.381531,22254.765305,7.342046,330.224221,425.651961,14.072197,67.005321,3.983573,1
7.12281,196.491418,22603.609894,7.219224,332.045333,426.140419,14.348758,65.705579,4.041353,1
7.07164,199.142718,21517.89622,7.113653,335.457735,421.893997,14.292718,67.30744,3.93884,0
7.109808,194.345653,21497.222392,7.088886,332.931831,425.219036,14.320975,67.024986,4.023723,1
7.032341,193.45607,22572.883464,7.193093,335.759904,426.020291,14.107828,67.236352,3.931267,1
7.019876,196.115881,22152.110492,7.275303,333.135866,419.796709,14.185699,65.668148,4.023542,1
7.170606,194.888015,23595.48274,7.134581,332.700876,420.897146,14.221264,65.167962,4.024482,1
7.223452,197.218621,21757.906975,7.159447,328.684607,418.466377,14.165269,66.243041,4.007293,1
7.595229,188.373282,32869.474408,6.745588,365.208692,326.627131,13.883329,73.43822,3.497604,0
6.932042,195.182549,21095.812496,7.009284,336.42163,427.654002,14.264288,66.789679,4.000763,0
7.132611,195.121483,22962.494449,7.272351,333.137832,424.234847,13.975999,66.446411,4.021755,1
7.126083,195.460701,22396.434105,7.088959,328.565551,425.755787,13.982831,66.853693,4.022274,1
7.038858,195.560706,21169.763664,6.982542,334.252534,426.437187,14.450264,66.283643,3.944534,0
6.901825,196.969685,22212.556036,7.103909,333.249525,432.63248,14.236682,66.996609,3.87579,0
8.289858,222.483931,23884.131479,5.533208,354.95933,514.733083,11.205533,57.31368,4.289237,1
7.00902,196.709424,21147.144373,7.142131,334.138405,423.688656,14.547934,66.688867,3.981296,0
7.044419,197.585637,21340.083201,7.044468,330.701018,420.512666,14.386445,65.418296,3.959379,0
7.13461,194.503592,21859.849757,6.984865,334.478256,421.467397,14.398939,66.748908,3.929032,0
7.147628,195.403043,21954.684226,7.242109,333.449444,423.740946,14.431798,67.373834,4.008501,1
7.046061,195.491439,20987.794204,6.894103,333.092538,430.161584,14.352874,66.02957,3.957436,0
7.244636,196.041983,21382.677973,7.064379,335.488915,417.739373,14.371747,66.273475,3.940456,0
9.802721,98.771644,27357.456745,9.21815,323.199077,512.428731,14.168934,59.45444,2.764634,1
7.105976,196.238975,21551.244661,7.130883,337.015133,424.627178,14.510743,65.489897,3.956139,0
7.055759,195.453711,22918.578638,7.090012,331.055115,425.294552,14.453493,66.580286,3.963968,1
7.16353,200.414745,21929.375524,7.238247,332.644297,427.122894,14.058479,65.84514,4.033596,1
6.714777,185.909303,34558.402667,6.554858,360.508237,303.968203,10.22647,50.214011,4.684853,1
6.867113,197.50693,21406.937478,7.047,332.615651,428.876421,14.306429,67.105246,3.952733,0
7.120682,197.033897,21658.322806,7.004846,334.25674,429.075819,14.616066,67.025068,3.972451,0
6.98817,195.513464,21391.992015,7.164457,334.248932,422.778709,14.426543,66.716428,3.975447,0
7.164305,196.221939,21647.439626,7.01557,332.659101,430.90818,14.142622,66.754361,3.952995,0
6.433722,177.252511,20321.229404,6.378918,373.051772,375.028222,11.684648,61.629823,3.64149,1
7.019344,199.13107,22841.304426,7.053263,330.580167,432.348681,14.438013,65.749521,3.993295,1
7.17064,194.501549,21447.115894,6.981203,331.908281,422.40337,14.349882,65.942911,4.01259,0
6.948307,195.682739,21211.294531,7.080882,332.638538,424.826483,14.4259,66.942982,3.942844,0
7.091582,197.811131,20954.218866,7.099897,330.865166,429.899808,14.211576,65.188971,4.00253,0
8.468741,132.456484,21038.442613,8.001378,345.000735,360.575586,10.74296,64.508934,2.876996,1
7.121857,196.161101,20775.649416,7.01115,332.222028,425.178015,14.293242,65.974039,3.988327,0
8.180755,178.079638,25623.867503,7.574082,391.918229,353.507014,19.749408,74.295305,3.845423,0
7.066506,197.385991,21657.486867,7.123528,333.065229,426.305343,14.32716,66.923416,3.989632,0
7.048197,194.094013,21098.139264,7.086964,333.356257,429.495202,14.162117,66.790796,3.996262,0
6.124672,179.579752,27951.61307,8.075627,303.646928,467.171822,13.835117,69.017488,3.631007,0
7.214519,195.650433,21926.038472,7.208686,333.261897,435.067255,14.076049,68.036432,3.916989,1
7.016158,198.038336,20949.586404,7.011826,331.116527,426.085197,14.334492,66.929788,3.97807,0
4.624304,121.036319,22981.749411,8.297074,372.037359,260.566164,13.05403,66.553465,3.42425,0
7.108829,192.904135,22313.623368,7.273642,336.168585,424.255027,14.259119,67.394783,3.999821,1
7.092153,196.658249,21836.511859,7.165829,333.843505,423.298735,13.977712,66.237035,3.898151,0
6.953372,203.146547,11609.109055,5.495738,304.283193,551.143337,9.387781,55.958006,3.651866,0
7.858663,210.954754,26703.853473,6.509065,341.341899,374.072845,8.811986,72.799798,3.422471,0
7.308798,195.666142,22747.027287,7.292496,331.700597,426.836578,14.152449,66.061697,3.93689,1
7.018322,198.058328,21442.486059,7.12065,334.176556,427.966441,14.240078,65.995848,4.042611,0
7.199709,194.98191,21483.696789,7.083798,333.153283,431.847783,14.294878,66.958087,3.931362,0
7.129805,197.547403,22049.92103,7.048775,333.010693,424.40397,14.171265,67.241455,3.912421,0
7.210042,196.027533,22548.168659,7.122455,330.324005,418.439213,14.386374,66.167172,3.97303,1
7.147607,197.40256,22941.400967,7.297924,330.915538,416.524228,14.20915,64.713449,4.038632,1
7.110716,195.273419,23130.282083,7.154205,331.880613,426.537398,14.452349,65.300504,3.948599,1
7.188344,194.536165,22933.484557,7.064223,325.221461,420.947925,14.271841,67.233915,4.023175,1
7.148589,196.652984,23138.501636,7.216127,330.207278,425.81402,14.537677,67.343508,4.019658,1
7.041726,194.687407,22266.899043,7.058572,335.419098,418.749766,14.507514,65.608087,4.014949,1
7.046146,195.877667,20753.183714,7.11047,334.154807,418.878311,14.546666,67.246028,3.923968,0
7.083884,197.916458,21854.790434,7.185013,331.235113,421.115782,14.33601,66.264408,3.931817,0
7.303329,198.19012,21459.336212,7.045505,332.995172,427.986863,14.298388,66.188342,3.995192,0
5.226895,127.117555,7907.330441,6.761929,335.461842,475.332357,12.72501,79.420013,5.138056,1
7.066312,195.245309,22277.524704,7.307738,331.997899,417.789521,14.214481,67.723944,3.996305,1
7.16588,199.877731,22123.554949,7.153422,332.414242,425.548396,14.480121,65.914999,3.994212,1
7.013044,194.92935,22507.717379,7.188079,328.603384,427.013672,14.002776,66.799601,3.976305,1
7.140727,193.43856,21299.276122,7.128533,329.523553,421.544368,14.393023,64.386786,3.978936,0
7.125587,198.227626,22077.029665,7.270023,336.742745,421.190792,14.197637,66.608238,3.957704,1
7.175569,198.469755,21712.339388,7.09777,335.018698,429.972025,14.462057,67.517623,4.054999,0
6.648793,213.959988,16388.405265,7.656506,357.728131,372.686995,15.379519,31.895507,5.138048,0
7.440825,183.362713,17259.852302,4.610245,335.626443,452.995293,9.700906,80.537065,2.496343,0
6.856327,199.900305,22382.236837,6.946719,337.38189,425.42788,14.662961,66.509479,3.956166,0
7.000765,194.170243,21493.044452,7.225606,332.524592,420.02602,14.396576,65.692315,3.957409,0
7.059106,194.597232,22239.623834,7.059763,335.725718,426.333137,14.581863,66.609064,3.990795,0
7.179864,180.854211,10859.553752,8.263503,341.302486,358.056264,12.065317,83.329918,3.878447,0
7.021046,196.350802,21935.595051,7.133004,334.634431,426.078277,14.371323,66.118885,3.948805,0
7.614878,246.030856,33347.971098,8.222533,345.808809,445.766853,10.763691,98.368656,2.990781,1
7.079925,196.461741,22188.582941,7.181265,329.65737,426.829421,14.465863,66.060517,4.008242,1
6.998806,195.404441,21851.548113,6.941466,329.982392,429.053345,14.422403,65.807165,3.973823,0
7.055805,195.660516,22356.667495,7.215982,329.474838,417.153021,14.189654,67.222339,4.035599,1
7.102216,196.450001,21689.885213,7.080873,332.801883,430.964279,14.247603,66.428946,3.929552,0
7.043265,196.15884,22005.810483,7.221989,333.472269,426.813614,14.116336,67.357494,4.041895,1
6.979655,197.953041,22206.070659,7.100795,336.198186,429.141746,14.341126,65.074931,4.02208,1
7.116188,195.255562,21935.474114,7.212193,332.513883,430.163626,14.574033,68.234263,3.976203,0
8.17608,201.553701,21856.988628,5.241047,320.26012,464.80333,15.627641,61.654744,4.112322,0
7.09057,194.211689,22309.60732,7.274708,333.471118,429.612106,14.299573,65.872101,3.885965,1
6.777506,207.050748,15228.912909,6.182409,321.399404,523.241732,12.683724,86.165971,4.26318,1
6.908272,211.105551,19224.98628,6.37997,307.102206,323.885454,21.208477,71.920988,5.405567,1
7.196517,199.696747,21508.27324,7.156355,331.193037,423.522762,14.318972,67.71559,3.991944,1
6.418203,173.446214,19617.308494,7.396472,321.86525,391.667466,18.453951,46.345864,2.670977,1
7.156257,194.294903,22069.016647,7.191688,333.06466,426.384508,14.792065,66.299349,3.949893,1
7.227136,195.938462,21530.66777,7.112055,335.006541,431.042397,14.526689,66.158626,4.039615,0
7.158056,194.789132,21835.065628,7.077776,333.175469,420.402727,14.452714,67.260244,4.058054,1
7.053372,197.277897,21821.082682,7.140692,334.456494,426.189657,14.583297,65.903685,3.871822,0
7.094181,195.151729,22246.925291,7.174087,336.507457,429.928483,14.380645,67.26508,3.933481,0
6.93045,195.825692,21922.700086,7.255437,331.494691,424.695254,14.433138,67.561961,3.906103,1
7.154354,195.272339,22176.999038,7.279108,334.796879,420.767214,14.312935,67.151279,3.982173,1
7.159103,195.65573,21779.677189,7.156068,333.614113,430.951217,14.271307,65.822518,3.982817,1
6.848033,165.815326,6068.454885,6.132132,373.206834,442.786267,11.118171,64.0276,4.257038,0
7.05973,199.051946,21194.588245,7.125133,332.398301,434.21804,14.413094,66.172434,3.851733,0
7.220505,196.092443,22332.035409,7.327514,331.550292,425.648789,14.25547,67.028157,4.007802,1
7.065608,196.997635,21856.240305,7.066621,332.192396,424.503123,14.415732,65.881966,3.985303,0
7.226572,198.356574,21780.14965,7.119147,331.128921,430.393851,14.511594,66.421505,3.95188,0
7.114943,195.355273,22108.020889,7.079267,331.44324,423.702036,14.604191,67.269649,3.998217,0
6.981977,196.046664,21497.288349,7.102835,334.688392,426.050946,14.241205,65.775696,3.971732,0
7.103318,192.866385,21721.931832,7.152926,333.331214,423.967249,14.405778,66.959828,3.947488,0
7.190186,195.521136,21696.126538,7.143096,332.350618,418.465589,14.146539,66.992418,3.982829,1
7.237325,195.070605,22971.539691,7.149651,333.470436,430.58537,14.348715,66.680548,3.946559,1
7.207289,199.330417,23024.920144,7.009677,332.778521,424.744336,14.508182,69.218815,3.960962,1
7.557964,156.461872,32833.431169,3.311607,257.276554,277.234155,17.857214,62.553136,3.29227,1
7.066307,196.173229,22002.753457,7.219409,330.089459,422.864265,14.406251,67.531887,4.030798,1
7.397544,184.840925,19797.108543,8.422,387.190304,428.414784,13.143444,62.337976,3.947138,0
7.04488,195.413827,22568.399238,7.112826,332.677139,418.443799,14.265359,66.176011,3.93646,0
7.094895,196.646134,21827.832596,7.100417,335.293724,425.723951,14.658019,65.924732,3.956655,0
7.182377,198.011117,21623.379225,7.26839,336.586601,420.175509,14.181047,67.991449,3.968893,1
7.129358,196.121716,22257.424798,7.14727,334.152542,423.930127,14.10696,66.970361,4.074124,1
7.150678,194.590172,22143.67335,7.169604,334.851299,428.603114,14.302024,66.064644,3.925493,0
7.039431,194.868468,21464.570849,7.061844,335.896818,430.885261,14.455829,66.180002,3.944765,0
7.117413,196.70992,20976.680979,7.231501,328.725334,431.569463,14.729272,66.813908,3.986431,0
6.968299,196.617576,21946.056353,7.123451,335.835732,423.603127,14.612644,67.539531,3.951062,1
7.210879,195.805366,21464.456727,7.080072,334.233656,432.902888,14.28182,66.086596,3.933665,1
6.999129,197.188066,21378.487609,7.179905,332.884294,436.67254,14.723224,66.09944,3.903273,0
7.136627,195.393461,22250.452522,7.165206,330.598475,418.459391,14.359244,66.850934,3.998684,1
6.99204,197.220908,21354.142398,7.041456,336.439905,429.563914,14.373944,65.089912,3.919545,0
7.052459,195.823464,22249.127561,7.111505,334.876566,423.107166,14.29718,68.457502,3.963356,1
7.121166,194.864942,22727.796932,7.224178,334.376401,425.155897,14.40632,66.965466,3.958705,1
7.061619,196.418407,22081.867616,6.966757,333.098452,430.914568,14.196229,66.801553,3.948587,0
7.203537,197.553477,22037.218809,7.258284,335.020101,433.038082,14.119245,67.71921,3.99685,1
7.001537,196.690606,21573.727271,7.189897,333.250931,428.564941,14.39274,66.573644,3.980519,0
7.188829,193.684232,21520.799164,7.237693,330.526804,421.543002,14.50194,67.121414,4.043229,1
7.114926,193.792692,22337.917847,7.088469,333.101993,423.640557,14.218036,66.136212,3.998804,1
7.209299,194.354453,22129.806351,7.078156,330.668271,428.096535,14.238755,66.030889,4.006853,1
5.754213,241.60243,31871.291239,7.299302,203.444521,495.945344,22.763707,71.428978,5.920234,0
7.063281,193.693311,21932.22799,7.179627,332.57745,425.224878,14.378386,67.149563,4.003655,1
7.109958,191.880954,21870.573847,7.092394,330.07512,432.294306,14.429639,66.097378,3.978725,1
7.191519,197.540353,22219.656792,7.322385,334.448849,426.225296,14.187629,68.207629,4.011111,1
7.131345,197.264756,22452.473356,7.192236,329.586186,419.0637,14.692891,65.678537,3.995991,1
6.934934,194.687576,20802.842765,7.009639,334.045149,424.587989,14.343909,65.708478,3.975237,0
7.041484,196.188446,20876.699773,7.117983,335.722244,426.468357,14.09843,67.602885,3.957776,0
7.071904,195.956765,22116.024494,7.142887,334.337492,445.899683,14.35631,66.003471,3.925993,0
7.115701,194.817462,22761.367951,7.087456,332.725042,420.95756,14.238933,66.212003,3.991347,1
7.121502,195.779246,22297.307332,6.993332,333.648096,426.78231,14.611292,66.068125,3.910699,0
7.073623,197.080289,21603.467264,7.064169,335.406266,429.68261,14.345402,66.560509,3.999013,0
7.061465,195.808982,21857.061151,7.132731,333.338468,437.672508,14.473414,67.267958,3.892905,0
7.217596,197.905374,21730.559197,7.057893,337.633856,426.101656,14.441421,66.256479,3.92818,0
7.048231,196.416582,21988.369522,6.999542,333.737705,431.788578,14.599147,66.740761,3.9444,0
7.021992,195.531595,22959.846838,7.134616,328.705915,417.660033,14.11463,68.028214,4.038965,1
7.202827,195.97278,22904.725276,7.183558,333.272522,425.569404,14.195849,66.423322,3.962846,1
7.19413,196.297178,22657.948077,7.20951,336.736211,431.010563,14.48538,66.174882,3.936521,1
6.966636,197.325533,22576.975996,7.083262,334.265909,426.255328,14.254255,66.543266,3.999785,1
7.027976,195.11707,21113.342974,7.177126,333.198642,421.663719,14.770208,65.868907,4.006114,0
9.319176,199.333565,14294.24035,7.78494,366.051752,338.44145,15.215293,63.391468,4.12923,0
7.117209,194.47164,22882.656115,7.138105,331.710693,425.96208,14.187345,66.224012,3.988145,1
7.185055,200.020343,22451.04242,7.117596,334.066792,428.803881,14.299577,68.318086,3.932371,1
7.174622,195.87436,22426.857836,7.152914,332.333194,420.066581,14.014676,65.371204,3.936218,1
7.109748,193.818323,22648.437859,7.191606,334.150593,426.268009,14.343255,66.577438,4.061798,1
6.916483,194.414002,21798.615205,7.256128,335.497665,419.023019,14.142413,66.939699,3.914517,0
7.122251,192.934126,22531.163486,7.219282,330.376644,423.356235,14.300654,66.981667,4.028718,1
4.691438,200.889406,32182.262318,8.57165,364.746786,516.851623,12.404439,85.026227,2.730792,0
6.862995,184.480659,11579.113398,6.149494,364.1102,556.956271,9.246908,34.24978,5.343285,1
8.410461,234.876524,27554.345263,5.681716,362.48956,519.031625,14.482213,55.628499,2.97736,0
7.288113,216.612475,18979.981692,7.66851,358.97862,384.694955,14.163607,53.313046,3.62699,1
6.889403,194.836876,21495.088506,7.212722,331.878061,428.686782,14.527799,66.950919,4.100393,1
7.059421,193.121953,21387.510342,7.17303,333.787678,427.529063,14.166789,66.91815,4.001551,0
7.156954,195.312802,22142.217032,7.200442,328.120955,424.341098,14.131557,66.41187,3.989051,1
6.95249,195.981059,22519.894922,7.157423,334.160446,427.010921,14.114488,66.25119,3.954157,0
7.076722,198.611955,21215.854918,7.116708,334.4473,431.767289,14.206064,66.649351,3.889964,0
7.026237,196.680311,20816.005811,7.074547,329.496852,429.208218,14.380652,66.804787,3.919272,0
7.20853,193.7408,21999.85277,7.217939,332.119635,425.513022,14.255238,66.195606,3.994108,1
6.25241,225.784101,23920.254778,7.018165,303.791688,484.585791,13.433506,67.401384,2.722908,0
7.046583,196.334066,21711.041153,7.042773,333.79197,421.352599,14.430571,66.027486,3.963815,0
7.156005,198.067016,22078.256107,7.159927,331.022855,422.700575,14.509493,65.785146,3.979897,1
6.770095,201.650854,25887.631722,9.367533,327.619453,519.380367,17.7203,90.064849,5.203461,1
7.100876,196.339883,21323.402158,7.098741,334.064743,429.381275,14.273508,66.551891,3.924547,0
7.168508,193.337095,21915.268493,7.29386,330.680242,431.332751,14.491104,67.180351,3.956012,1
7.199395,196.260372,22070.0658,7.234326,332.75918,429.425911,14.527528,67.45291,4.030998,1
5.530055,207.99822,38918.778073,6.543134,360.070715,427.664302,18.81308,61.214979,3.327472,1
7.010863,197.621968,21212.946231,7.088155,333.872405,428.272035,14.374364,65.873636,3.944005,0
7.125362,195.851062,23249.662452,7.107544,330.881494,423.73574,14.446435,67.061482,4.046418,1
7.104147,197.080178,22476.463915,7.155352,334.444865,419.06614,14.216476,66.865783,3.968374,1
7.084102,196.490496,22205.938272,7.21001,332.299865,425.971838,14.128939,67.557388,3.96635,1
7.116752,196.86833,20784.801524,7.103368,331.566385,417.922591,14.571961,65.708266,3.950821,0
7.011799,195.26566,20879.476876,7.096617,331.649601,424.932523,14.63751,66.562432,4.002928,0
7.721078,208.438593,17248.618742,7.68537,286.403522,269.013635,11.757348,56.884528,3.223951,1
7.04707,194.617825,21506.482156,7.084137,331.603786,422.860948,14.20488,66.22087,3.899677,0
7.147232,198.94997,22678.187505,7.131539,332.623801,425.497204,14.186226,68.149032,3.99275,1
6.102533,179.397232,24196.264415,7.155344,321.442113,525.900095,13.47815,60.05829,2.292574,0
7.076317,197.665791,21572.443438,7.111763,331.534292,431.068114,14.659006,65.280148,3.884931,0
7.013382,197.70826,22026.729742,7.264968,332.130906,418.38837,14.128151,67.427174,4.000765,1
7.051661,196.642027,20937.393449,7.046766,333.028255,436.880345,14.568051,66.199373,3.901373,0
5.023381,136.976879,15040.841478,7.588021,409.918702,454.884809,14.245091,71.983851,4.477351,1
7.065697,196.250484,22884.131355,7.125491,332.05478,427.23002,14.448948,66.73693,3.977944,1
7.118925,197.28364,22415.177533,7.165084,332.955479,417.95963,14.348382,65.334053,4.035702,1
5.970579,202.74552,19952.30947,7.872038,311.188185,412.038922,18.632142,73.166338,5.013281,0
6.923482,193.884513,20858.139469,7.038852,333.90627,425.875168,14.411396,65.06451,3.9157,0
4.337119,207.361907,34355.618427,6.809153,374.072772,530.069602,12.622032,44.750359,4.401635,1
7.187168,192.988004,22106.317569,7.179217,335.633512,426.166265,14.268252,67.42897,4.026325,1
6.967532,196.188892,21509.993738,7.20376,332.86768,426.783551,14.531525,66.188322,3.957655,0
7.123397,199.358639,22828.154669,7.267263,333.715868,419.597461,14.268001,66.301054,3.992465,1
7.214701,196.607698,22984.328882,6.989549,329.932826,420.828288,14.228659,66.934473,3.968474,1
7.072951,195.64761,22477.853027,7.059521,330.906094,421.048664,14.381688,67.253044,3.989185,1
7.108099,195.717332,22574.882731,7.159437,328.031414,427.678303,14.4374,66.446318,3.911888,1
8.518532,128.263466,32018.289631,6.05874,458.441072,554.139037,15.976196,87.471821,4.147169,0
7.098228,198.525707,22263.46029,7.298277,332.747453,426.458313,14.479543,67.485827,3.999772,1
5.045626,179.702503,22557.603596,10.120334,296.425154,450.295696,14.215817,82.066334,3.331787,0
7.217401,195.812511,21724.215635,7.183108,330.51501,426.334134,14.491061,66.702308,3.897947,0
6.848,199.776814,26296.9483,7.339173,354.250555,397.536471,22.139958,51.534965,3.815228,1
7.120124,198.825243,22226.443997,7.329829,329.956516,431.422466,14.278881,66.886346,4.044611,1
6.942788,194.76601,21983.854978,7.079907,334.882147,421.299592,13.972498,65.518045,3.927072,0
7.134756,194.921271,23108.454364,7.133959,330.5897,425.353832,14.363126,66.806718,4.047429,1
7.23143,193.785043,22552.590102,7.17519,335.01076,426.990141,14.309775,65.788004,4.067048,1
7.189286,196.364416,21783.797902,7.13288,330.688081,427.877154,14.488436,68.159893,4.022409,1
6.98925,195.782532,22721.756306,7.116718,334.015951,421.989072,14.264619,66.445252,3.991716,1
7.257023,195.410573,22164.892411,7.262897,331.508955,436.821875,14.562083,67.874479,3.999497,1
7.12116,196.809719,21355.867315,7.168112,335.801114,423.510683,14.500142,65.944456,4.016239,0
6.260892,188.061805,33809.224701,8.141301,341.498044,522.301232,14.467501,47.050155,4.397386,0
6.238054,178.298051,21919.593435,7.085377,335.858369,287.572947,17.459888,46.953271,3.848307,0
8.408766,210.795406,27662.397101,6.63421,291.687653,555.580978,12.344834,67.061824,2.372791,0
7.038363,196.137761,22634.52343,6.98551,331.019938,425.108414,14.362024,66.159893,3.930736,0
7.111398,196.339658,21734.678093,7.258989,331.742322,425.125782,14.648507,66.772592,3.99478,1
7.028748,194.552727,22479.047128,7.024006,335.86485,421.487555,14.182531,66.13005,3.972325,0
6.406798,182.885137,17851.064021,7.462758,332.486731,398.779746,17.301617,64.070236,4.573968,0
7.141547,195.166287,21612.336072,7.314524,333.529594,425.787206,14.269854,66.807002,4.001298,1
7.089878,198.922404,22939.395164,7.22759,329.986096,422.191751,14.22533,66.567925,3.898194,1
7.134689,195.824862,21550.837166,7.06161,333.438696,430.487903,14.09245,65.920921,4.017797,0
5.214009,192.648846,34184.308402,5.783357,282.969879,380.428415,15.867751,80.498498,4.453526,0
7.029374,193.620538,21269.58233,7.052149,332.962911,429.225322,14.543342,65.871451,3.925467,0
10.378108,200.004121,8644.831047,9.823507,442.761428,473.814191,14.156241,64.164409,3.577447,0
7.040673,197.337543,21099.220408,7.214869,334.684721,428.023173,14.271359,66.113429,3.995449,0
6.986744,196.862374,22323.546656,7.201965,332.484071,422.077081,14.405794,65.634024,3.976392,1
7.155994,193.889444,21970.24774,7.255746,332.992709,428.887373,14.041311,67.879851,4.009828,1
7.094167,196.750407,22695.339629,7.255164,331.907588,423.913559,14.295808,66.244879,4.007656,1
7.181464,200.353867,22769.0229,7.295047,332.808319,422.514181,14.427549,67.123418,3.992661,1
5.928767,192.04842,19240.058202,8.986863,400.164161,459.260961,9.893655,52.157787,3.592912,1
7.158123,196.165071,21436.383828,7.017991,331.572077,429.145125,14.70451,65.460481,3.973081,0
7.081761,195.637112,21894.016685,7.123928,334.316742,422.914437,14.562681,64.92956,3.947567,0
7.174385,196.315661,22815.543085,7.179137,330.890324,424.14604,14.111052,66.722994,4.035438,1
7.07815,194.584135,22246.178172,7.270436,331.633681,428.417295,14.43076,65.503011,3.930691,1
7.028086,196.018488,23007.147752,7.212952,332.73395,425.319691,14.46596,65.56157,4.034388,1
7.136687,191.949633,21880.640584,7.239712,332.604158,420.348246,14.396614,66.744135,3.990694,1
7.015522,199.604742,21534.20251,6.902561,332.371414,431.314364,14.347558,65.026642,3.966175,0
6.865609,194.709629,21989.277534,7.166102,334.081113,427.56742,14.224739,67.486947,3.918162,1
7.146674,196.855084,21706.091004,7.059356,333.319197,426.79045,14.461036,66.078309,4.038717,0
7.039743,197.617585,23151.052814,7.113137,335.25717,422.842238,14.200134,67.694625,4.007826,1
7.81425,203.383463,24470.204256,7.631407,321.97457,516.646817,17.242909,80.651978,4.104662,0
5.984941,180.776562,33244.555597,8.086517,364.706394,392.97102,20.471817,50.141602,3.488675,0
7.091259,194.578577,22595.27541,7.043077,331.027961,430.68872,14.181096,66.59818,3.995455,1
7.143637,198.821862,21964.551453,7.152815,329.398166,428.086528,14.458131,65.883988,3.882633,1
7.038345,195.995762,21330.102451,7.409716,333.868542,423.441791,14.441353,66.112463,3.944373,1
7.245985,194.419555,23061.017022,7.149748,332.514276,425.968307,13.964554,66.524487,4.002232,1
7.202379,192.873653,21071.676857,7.195111,331.654623,419.991836,14.210887,66.16835,4.028223,0
7.067749,195.958153,21639.516408,7.151352,332.046434,420.475433,14.330713,66.396154,4.072781,1
6.852454,194.709391,21620.937503,7.045636,331.734879,437.619913,14.31101,66.421246,3.917387,0
7.088882,192.398236,22372.392976,7.255933,332.720675,427.533949,14.549189,66.256363,4.068717,1
4.736405,203.27642,28698.729965,5.271367,323.683683,508.820341,14.06314,65.155182,4.995602,1
10.154219,244.209385,24755.960256,4.71135,299.797515,387.589427,15.363599,70.823244,3.730899,0
7.070036,196.243458,21783.666991,7.101502,333.686355,431.864713,14.108557,66.157598,3.897526,0
10.695532,220.451078,10571.770377,6.521422,295.976094,414.256086,14.774801,58.735933,4.154845,0
7.036098,194.755395,22672.880848,7.251789,333.612677,426.868153,14.261083,67.06391,3.982426,1
7.083246,195.668406,21555.796337,7.174767,329.252513,431.549042,14.254335,67.556767,3.92754,0
7.081855,197.82305,22693.565902,7.323471,336.052911,429.855214,14.209147,67.37841,3.973997,1
7.055109,196.200955,22539.846131,7.361736,333.778671,420.218494,14.464373,67.333646,3.948142,1
7.215947,198.801333,22094.848244,7.045865,333.032897,423.322283,14.260823,66.633573,4.04554,1
7.150852,198.077399,22389.520957,7.258504,330.438804,424.223804,14.13255,65.295078,3.988357,1
7.126975,198.017324,21758.281422,7.11193,335.173649,428.092876,14.300276,66.486396,3.937075,0
7.211932,197.071479,22748.236616,7.085559,331.067519,431.44981,14.331604,66.396759,3.927885,1
7.043142,197.046636,21991.448258,7.075253,330.885502,422.65922,14.292791,67.440086,3.9619,1
7.21317,194.083803,22118.54113,6.98504,338.382056,427.121459,14.189311,66.486392,3.929817,0
7.245091,192.301351,22752.679917,7.125343,334.366686,432.514585,14.425129,67.339911,3.959854,1
7.075698,196.170016,22011.688933,7.168464,336.42106,423.5278,14.630905,68.075019,4.007314,1
7.039941,192.67601,21412.639034,7.130221,334.379204,427.279893,14.366526,65.214434,3.949812,0
7.023676,194.976342,22026.854619,7.09838,331.246403,423.955844,14.239925,65.627955,3.982807,0
6.887414,223.603058,29189.136721,10.514466,253.830552,386.622862,11.312294,67.916183,4.564188,1
8.589202,233.727975,7263.056749,6.953308,268.971355,258.880209,8.986363,41.930439,4.041446,1
7.094091,197.48306,21696.593054,7.157173,331.656598,433.021035,14.327136,66.130639,3.911416,0
7.130466,195.773054,22313.147645,7.1762,332.706644,419.240358,14.161672,64.915176,3.925527,1
7.092504,195.665357,22956.619902,7.159776,331.256777,432.6171,14.194637,66.138448,4.050815,1
7.176605,196.812178,21490.456252,7.176716,333.550844,426.805378,14.417982,66.705223,3.925736,1
7.291181,195.354142,21568.584426,7.061648,336.019936,425.371266,14.356689,67.009214,3.861806,0
7.015753,194.71001,20842.884214,7.105394,336.037265,432.424244,14.497551,66.555069,3.973806,0
7.090967,197.484746,22046.785765,7.27913,329.16545,426.36256,14.119945,67.282096,4.007238,1
7.095218,195.496965,21386.176701,7.152667,334.461906,428.607648,14.541685,66.288551,3.965957,0
6.931635,194.505735,22659.694001,7.311027,333.840331,428.621663,14.185203,67.382844,4.001454,1
7.219187,197.863639,21484.724061,7.049127,331.746391,426.123871,14.459381,67.467052,3.895143,0
7.065709,196.609839,23214.654298,7.271574,334.369541,424.179835,13.886871,66.384173,4.007777,1
7.064373,199.836462,22609.731941,7.199169,333.636026,424.023822,14.394911,66.205993,4.049599,1
7.238763,195.21762,21637.730267,7.158699,335.710404,432.409458,14.422239,66.10716,3.96849,0
7.920795,173.357151,13454.634777,6.947895,356.768119,471.368695,16.47784,68.000508,3.374327,0
9.663653,233.487268,13213.578254,10.149937,293.074657,326.777803,10.439619,62.455373,4.741944,1
7.180249,194.735603,22747.118824,7.162065,328.300627,424.000332,14.220121,66.952897,3.97841,1
9.769251,264.265654,8471.677381,8.34971,359.268543,353.196475,15.047087,52.645459,4.636556,0
7.117086,196.969004,22442.05561,7.106037,331.059306,426.933422,14.635348,66.626456,3.97374,1
5.842359,217.3248,29644.813606,4.179108,328.503921,310.771178,14.335395,62.654956,3.865296,1
7.131668,195.163444,21692.74142,7.286344,334.93298,425.790999,14.373915,67.917396,3.949036,1
7.117007,193.896802,22378.209374,7.038706,333.516065,436.005365,14.366272,65.352474,3.990736,0
7.795958,239.278255,27849.142088,6.475994,356.170702,484.104784,18.692248,50.128415,4.251876,1
7.050496,195.567359,21419.225571,6.981658,331.128269,427.53559,14.311645,65.482725,3.941066,0
6.914036,194.448964,21226.319883,7.04433,335.018324,428.395515,14.167028,65.833669,3.955157,0
6.101955,215.26809,15976.926225,8.85716,308.482695,417.843553,13.147279,62.505642,3.535596,1
7.239405,194.531345,23002.72344,7.176187,331.550082,428.707716,14.29289,66.134148,4.034835,1
7.07033,200.759576,21995.238306,7.010522,336.642559,430.858817,14.417087,67.343546,4.007102,0
7.128632,197.199041,22827.221687,7.159696,333.653509,424.87305,14.208275,66.134333,4.00376,1
7.063153,194.659556,21404.256103,7.222211,335.276525,427.182905,14.507681,67.507765,3.973121,0
7.143576,196.891114,22313.004574,7.212227,329.95437,428.255722,14.713844,67.462135,4.061175,1
7.190195,191.804731,22039.759856,7.100776,333.263502,423.810306,14.106746,66.354985,4.05733,1
7.020366,195.799155,21523.672301,7.09672,332.678614,436.772447,14.223497,66.483718,4.001463,0
7.015101,196.011243,21631.849741,6.991042,332.217951,427.660989,14.624125,66.909829,3.925775,0
7.128329,196.490591,21581.569857,7.181238,331.236473,434.813296,14.299605,67.895158,3.896626,0
7.063128,193.048659,22588.744653,7.210317,332.300165,425.780498,13.947797,66.691538,4.013214,1
7.719001,196.007518,13939.294022,6.935551,345.653662,423.203533,16.836786,89.338649,2.884819,0
7.107534,195.288087,22661.532498,7.246091,335.333358,428.561797,14.170999,66.435249,3.96583,1
7.003673,198.127665,22201.530692,7.156776,334.095084,426.643743,14.363443,66.662686,4.003357,0
7.064303,197.126475,22190.764642,7.031302,330.17352,423.882,14.300873,66.5577,4.00257,1
7.201164,198.359712,21021.892096,7.236737,334.774973,428.153436,14.536826,66.048952,3.919288,0
6.966552,195.313965,22661.150887,7.137045,333.718709,426.285619,14.345462,66.582052,3.943804,1
6.989515,195.712342,21751.624973,7.049631,330.106725,427.936699,14.285079,66.579899,3.954616,0
8.2141,192.177127,12819.875436,7.536023,343.477262,418.678765,13.352604,86.978101,3.381864,0
7.091549,194.288947,23046.567484,7.227967,329.068707,425.57444,14.387371,65.575193,4.014321,1
7.095371,196.44036,22274.307209,7.181861,331.348978,426.279365,14.345405,67.801735,3.982383,1
8.369154,183.500378,12975.900334,6.600853,315.901122,493.46544,12.987106,87.02941,3.629749,0
6.923742,196.280087,22365.870237,7.17873,334.943527,423.755896,14.301172,65.96659,4.027409,1
7.093156,192.474152,22496.810798,7.196255,335.971407,439.839544,14.211605,67.764145,3.959219,1
7.282589,196.798586,20728.381722,7.12874,331.489764,425.240409,14.40158,65.767163,4.017368,0
7.131703,196.222252,21556.78409,7.03309,333.422855,420.146115,14.310303,65.615846,3.944217,0
7.178586,195.851385,22249.495619,7.228599,332.895899,429.217989,14.308905,65.902978,3.961367,1
7.119187,193.325528,22166.174843,7.144163,332.268166,424.692532,14.306224,66.940546,4.065846,1
7.061609,195.057469,21447.880096,7.319214,337.210406,428.072636,14.155912,66.531674,3.999846,0
6.161779,202.756973,12229.647584,11.523598,324.048035,344.365689,14.685927,47.803194,4.003547,1
7.0332,197.709847,21961.173432,7.150276,336.785922,422.725189,14.129754,67.2533,3.912794,1
7.06791,193.620722,22660.168011,7.132095,333.207711,427.022522,14.374864,67.147492,3.963963,1
10.485604,136.577381,32872.380566,8.399435,276.921835,416.188546,18.884625,60.078413,4.66924,1
7.038679,194.816373,21856.426596,7.118015,334.383285,434.243845,14.548176,65.569243,4.008591,0
7.014342,197.185187,23116.746152,7.233461,335.77849,419.559885,14.249281,67.340858,3.974771,1
7.011022,196.752053,21879.587335,6.959818,332.617021,429.04862,14.609648,67.195681,3.997096,0
7.091208,198.564334,21021.222342,7.143366,332.567781,431.391912,14.495617,68.192716,4.028174,0
7.086181,199.165253,22448.425205,7.12563,336.339618,423.465676,14.274404,66.575424,3.990286,1
7.123588,194.762235,21845.024784,7.15383,334.520295,429.240397,14.490791,64.503925,3.96485,0
7.118153,195.577818,22270.34891,6.978511,336.583746,428.841424,14.351274,65.802583,3.966388,0
6.974949,197.2557,21234.049108,7.132396,331.956852,427.311748,14.608839,65.844491,3.981021,0
7.13101,195.825316,22629.581031,7.248629,332.24944,420.732393,14.234124,68.23418,4.01071,1
7.097783,196.829221,22113.768313,6.990706,336.048828,425.962552,14.361066,66.030201,3.945452,1
6.847483,196.605242,21412.869703,6.979653,336.183363,435.246008,14.107353,66.326642,4.04388,0
7.102933,196.580021,22215.302804,7.108194,333.935622,425.131512,14.195682,65.76537,3.936064,0
6.980208,198.511616,21817.193961,7.119501,334.173218,428.59958,14.206574,66.770331,3.937064,0
7.16517,196.841776,22823.311324,7.203369,333.008057,428.24456,14.344201,66.167386,4.009611,1
7.109235,196.051078,21699.985094,7.100843,332.875893,423.089216,14.192971,65.535053,3.918316,0
7.148969,199.476995,22093.20458,7.186785,332.873595,431.570126,14.317213,66.14789,4.000034,0
6.991297,195.546756,23466.002759,7.112664,333.924756,417.850251,14.162247,67.310577,4.080291,1
7.130165,199.770101,23022.003857,7.10228,335.536148,422.469498,14.215957,65.762839,3.943019,1
7.203439,168.445358,22826.484697,6.28325,271.892045,437.370863,16.410654,64.505923,6.389161,1
7.169895,194.854448,20670.693485,7.164019,333.707739,429.670377,14.682225,65.490334,3.962368,0
6.957301,194.027633,21974.990418,6.920654,333.098572,427.846681,14.182207,66.555585,3.956524,0
7.142631,192.481592,21635.81261,7.00524,332.658325,430.409829,14.300234,67.08133,3.954191,1
7.029337,196.666943,22065.615389,6.996059,333.621175,429.677603,14.341432,66.654991,3.948992,0
6.857494,233.210575,22603.649454,6.627059,368.105783,412.434677,16.926175,62.5579,4.306581,1
7.178039,196.289851,21857.332153,7.039161,333.449442,422.241825,14.396684,65.076306,3.891897,0
7.125148,197.280413,21617.277358,7.200313,329.261306,421.546776,14.146094,67.161404,3.982799,1
7.214221,198.693108,21604.370189,7.051307,333.446708,423.687897,14.217236,66.019964,4.012922,1
7.068931,199.982294,21589.789523,7.099727,336.202623,433.033893,14.204724,66.875925,3.959779,0
7.07983,197.148582,21491.037968,7.053771,333.13505,432.07853,14.393066,65.596524,3.977315,0
7.060151,200.035718,22678.793331,7.046374,334.868059,430.130142,13.967639,67.267747,4.065846,1
7.097609,197.297657,22012.146833,7.077545,332.812445,429.65083,14.413104,66.317547,3.944374,0
7.160204,193.161796,20904.511308,7.142861,333.650256,426.784186,14.33104,66.512383,3.948579,0
6.990282,197.73791,21092.093022,7.069723,336.34422,430.008824,14.247795,66.870595,3.912127,0
7.08193,195.659665,22913.09509,7.135799,330.876012,429.704414,14.448949,67.187699,3.987052,1
6.911698,179.213674,25612.148912,7.22471,318.987914,298.550513,11.858905,94.340172,4.616641,1
7.137604,195.546102,22609.042987,7.119292,331.818722,423.075993,14.195617,66.308108,3.953093,1
7.235751,193.574005,22265.672364,7.130226,330.402664,433.125335,14.202408,66.764559,4.002275,1
7.103174,196.504263,21571.98583,7.125717,333.722895,427.397359,14.596047,67.140041,4.011111,0
7.965337,151.541889,25274.610305,7.106043,352.316182,527.688242,15.792625,52.26849,3.390982,0
4.79746,190.315127,21280.246559,6.188503,326.794194,357.436193,11.713821,63.863068,4.038503,0
6.966665,195.38194,22454.958722,7.116574,334.674225,423.74383,14.365419,65.865842,3.931133,1
8.043889,169.688225,8896.195118,7.837861,328.939817,430.836825,12.263492,76.334247,3.159949,0
7.122539,195.568759,21061.647936,7.208131,334.572468,433.943278,14.345269,65.852846,3.97283,0
7.122841,194.161798,21543.122038,7.057835,331.806583,428.885604,14.626868,66.568401,3.910106,0
7.043786,199.536888,22117.869958,7.192205,332.16845,428.568567,14.414109,67.918081,3.972597,1
7.05476,197.377721,22581.942188,7.234071,334.24701,417.063309,14.288415,66.401151,4.028567,1
7.069664,197.102317,22829.129272,7.205105,334.767723,420.455308,14.172565,66.759927,4.044373,1
6.978608,197.067345,21744.947883,6.969841,331.624798,427.473932,14.102558,65.781771,3.951824,0
7.084268,196.168649,22289.826957,7.262896,335.903577,423.557162,14.070957,67.126258,3.989036,1
6.988428,195.941516,22422.3414,7.019495,333.66016,428.560646,14.319222,68.229825,3.999251,1
7.066225,194.059441,20802.204912,7.017494,334.943242,428.098374,14.661426,66.702612,3.988923,0
7.051775,197.865236,22985.909672,7.075772,329.864197,421.964429,14.186117,66.20345,3.979327,1
7.046225,194.968173,22152.290177,7.114135,331.625704,419.823805,14.587687,66.861343,3.981708,1
7.013133,197.85531,21300.712783,7.021036,332.100108,425.568478,14.305354,66.603876,3.958953,0
6.623614,203.030141,17167.301297,6.049601,311.726288,410.243247,15.9145,65.021229,2.915166,0
7.098793,198.040074,22409.449749,7.183894,339.149244,425.802958,14.09479,66.816027,3.983303,1
7.002893,195.809597,21692.93701,7.108577,333.206996,422.355038,14.559173,67.080856,3.960046,0
11.301794,77.459586,39227.619457,8.517986,337.501247,410.856114,14.326889,53.12126,3.30958,1
7.168986,195.000388,22922.678261,7.182799,331.227304,416.549703,14.230452,68.277662,3.997858,1
7.131064,197.151672,22711.403527,7.243237,333.129044,418.33478,14.296828,67.570091,3.993606,1
6.94737,194.034473,21198.920037,7.023694,334.879927,424.869225,14.538865,67.591298,4.036692,0
7.164335,193.700447,22525.735021,7.119456,332.286212,421.443213,14.445715,67.102003,3.981277,1
7.249553,195.761221,21943.290058,6.993859,333.504711,428.279086,14.49391,66.803373,3.958566,0
7.113251,195.293229,21977.549769,7.141457,330.70429,418.262682,14.470348,66.600889,3.983671,1
6.868967,195.59469,21332.340777,7.214419,331.784767,428.719988,13.907353,65.771105,3.995093,0
7.105271,195.089916,22229.882146,7.215239,328.592964,428.196218,14.217878,65.376568,3.989952,1
7.856471,204.783428,5619.135558,5.816703,343.545419,432.04312,14.94772,55.961613,4.534681,0
7.196289,196.925203,22137.413087,7.232833,330.8486,430.596719,14.138412,66.049256,4.041928,1
7.162305,196.571788,23167.262491,7.102688,333.194143,429.797488,14.46493,65.736701,3.954975,1
7.059621,196.906899,21182.453795,7.201112,332.47318,426.953432,14.405886,65.383118,3.90015,0
7.091642,195.071002,22064.47993,7.282691,331.025806,427.838926,14.262577,66.998086,3.923838,0
6.945136,195.650484,22681.953015,7.200719,331.391337,432.905913,14.124105,67.758488,4.049864,1
6.983875,196.354532,21937.2089,7.155172,332.441877,421.913187,14.499313,68.883139,3.977207,1
7.089036,197.713938,21071.777441,7.137611,331.504418,424.047266,14.684657,66.23979,3.941241,0
7.099302,198.739952,22155.285432,6.982086,334.317243,427.216147,14.392541,67.771925,3.986095,0
7.157276,196.427355,21528.343953,6.947226,334.94174,428.854704,14.466333,66.665164,3.945186,1
7.177926,196.124415,21898.447062,7.026938,334.357563,426.621334,14.177371,66.020458,3.96046,0
7.207931,204.010347,18493.872175,5.557864,311.568227,437.512042,12.994596,31.39045,4.705562,0
6.268953,185.706647,24769.511394,6.717666,318.227942,534.540837,13.628865,69.13922,4.674496,0
7.16321,194.8261,22008.452568,7.136732,332.358234,424.784588,14.067481,65.872076,3.889562,0
7.157331,194.791692,22130.8777,7.118362,333.715708,421.956896,14.574286,65.114857,3.957078,1
7.10618,196.364079,20557.891269,7.112411,335.613051,422.147296,14.489228,66.897783,3.92059,0
6.991685,152.976217,20389.593816,2.64839,331.252916,460.146174,15.485378,69.670038,3.724824,1
6.957332,193.934057,21744.694737,7.08032,334.60295,429.691377,14.302593,65.610806,3.987864,0
7.014312,195.568804,22450.805655,7.076049,335.05409,423.16524,14.051482,66.493649,3.936599,1
6.9842,195.069305,21015.653931,7.147619,336.7796,428.906752,14.27289,65.70767,3.990302,0
7.097616,197.028128,22773.626175,7.221801,332.316911,425.863246,14.491195,66.775494,3.976514,1
7.136012,198.615182,22267.431087,7.218022,332.809959,425.489003,14.389971,67.002776,3.985461,1
7.178719,197.196022,23017.571639,7.190517,329.50235,429.046813,14.318375,66.318359,4.025717,1
6.978314,197.06542,21656.599234,7.290295,334.073231,428.879229,14.496438,66.896773,3.932409,0
7.714313,191.69264,19789.63608,7.856557,340.326314,377.926368,18.917027,58.692204,4.425134,1
7.081474,196.553928,22861.023489,7.109446,331.47251,432.849802,14.319484,66.252091,3.920576,1
7.051808,194.337135,22939.689307,7.167442,331.905684,426.799382,14.747426,65.365934,4.081983,1
7.090657,195.932948,21132.340283,7.116076,333.3968,429.181678,14.26301,66.880232,3.98352,0
7.116584,195.932138,22025.419827,7.079244,335.783041,423.144877,14.268843,67.170227,3.88745,1
7.154313,196.723453,22735.290161,7.355493,329.666833,427.640657,14.184455,64.688984,3.999315,1
8.433975,240.077927,10823.300365,8.418958,317.301369,426.175253,8.077156,49.270115,3.167712,0
7.207223,195.524978,21831.591014,7.142877,330.098357,430.37041,14.595717,66.188571,3.946663,0
7.090721,196.986513,23063.738959,7.110493,335.874622,432.920454,14.376888,66.481513,4.079561,1
7.1039,194.196329,22267.91366,7.121403,330.587541,431.945961,14.250976,67.11288,4.053145,1
7.019294,194.642558,21631.48652,7.045989,333.195825,429.321005,14.416357,65.552776,3.967047,0
7.050003,196.4422,21112.798622,7.033254,332.668765,422.645188,14.337152,65.290282,3.923402,0
7.094516,192.917284,23051.648621,7.114719,331.204389,418.034593,14.143365,66.76311,3.969256,1
8.862113,131.635177,17433.601853,7.639573,340.133165,399.462844,16.712206,53.594104,4.955082,1
7.026038,196.099585,21069.578555,7.065572,333.820096,425.474644,14.081495,66.230319,3.906851,0
7.104675,196.43566,22171.617318,7.325179,332.377475,427.505504,14.445077,66.826072,4.05492,1
7.150908,196.813559,21564.563033,7.175433,334.121805,425.563971,14.320976,66.557291,3.986747,0
7.036552,193.500259,21983.970926,7.000621,334.466331,422.343941,14.665931,65.724121,3.991914,0
7.110873,195.66508,22160.26732,7.113015,337.310342,428.973017,14.441239,66.697622,3.951478,0
7.258568,194.918839,22481.132702,7.251318,331.464557,421.021053,14.12316,66.415383,3.978795,1
7.059852,195.092371,21637.603774,7.085952,333.903534,425.703584,14.491703,65.642531,4.011234,0
7.09902,196.493666,22466.508483,7.000686,335.165837,431.326918,14.341536,68.01578,3.914148,0
7.055135,194.413987,22764.597661,7.02485,332.106467,428.255348,14.238011,67.2266,4.009178,1
7.101966,196.309411,22525.689638,7.157203,333.447981,425.387866,14.07401,66.212624,3.988993,1
7.989376,191.936191,16746.800392,8.562428,312.739993,431.505677,14.371148,77.92896,3.648744,0
7.227481,192.558648,22750.932926,7.208668,329.011891,422.42334,14.420457,66.935953,3.895412,1
7.076553,192.440667,21240.723211,7.068004,333.889241,431.329197,14.401183,67.3583,3.879749,0
7.102243,197.707178,22252.86269,7.231335,333.366792,417.961965,14.380543,67.248139,3.974712,1
7.154561,196.288881,21627.10198,7.099443,331.127749,426.18055,14.371741,67.310139,3.974657,0
7.191785,194.505881,22077.627258,7.098872,334.62973,425.258751,14.226276,66.74603,3.99259,1
7.050709,198.519996,22789.12315,7.214213,336.026173,424.741247,14.278293,66.601713,3.949011,1
7.094564,195.750483,22279.815971,7.208617,335.401708,427.237887,14.353496,67.501596,4.02698,1
7.051032,197.911418,21296.863884,7.221991,334.844966,423.456243,14.130793,67.026606,3.983805,1
7.162719,195.33553,22388.672484,7.072146,333.8209,420.349953,14.47661,68.005389,3.967545,1
7.041026,195.239343,22123.946444,7.131897,331.678413,434.158097,14.237835,66.207698,3.983622,1
7.081852,197.523881,22204.232048,7.119285,333.910295,422.011236,14.16291,65.514811,3.9739,1
7.041049,192.092879,23102.724628,7.159477,332.909336,426.19686,14.257234,66.714848,3.993162,1
7.258156,196.472683,22528.556094,7.059738,335.98752,429.666076,14.578698,66.743645,4.026052,1
7.129591,197.095362,23139.529745,7.171605,334.393062,428.350014,14.191171,68.172013,3.999098,1
7.025541,193.736175,22078.900581,7.153305,330.31762,429.743035,14.348128,66.709222,4.038127,1
7.11351,195.331812,21420.468231,7.03952,332.362583,425.293403,14.266316,65.553567,3.94626,0
7.16359,197.111906,21481.787661,7.211458,332.924638,432.804659,14.599522,66.025542,3.94396,0
7.151642,195.574843,22512.203848,7.137234,333.676312,420.092693,14.178925,66.976411,3.976823,1
7.833361,249.340053,13394.731607,8.34167,393.137872,443.629123,10.983344,76.645734,4.270973,1
8.858402,254.617519,9624.300462,7.954016,348.408195,344.303363,7.935468,78.10855,5.525726,0
7.072282,195.701351,21782.659883,7.183897,335.54076,429.485097,14.213595,65.956983,3.93361,0
7.263871,195.78927,22028.669745,7.178733,332.097974,427.492603,14.420489,66.871183,4.048517,1
7.544306,211.051146,34359.400797,8.166793,365.812313,447.520655,18.553478,60.162746,3.714096,1
7.074759,195.531592,22043.235079,6.982403,334.096211,425.375868,14.175835,66.218282,3.928653,0
7.031859,197.501763,22891.600452,7.15388,333.898488,431.078486,14.309656,64.958018,4.036233,1
7.013621,196.298161,22076.935891,7.229409,332.681488,427.753918,14.213033,66.5562,4.004827,0
6.905061,196.060538,21679.573621,7.106085,334.017497,431.050402,14.358131,66.413785,3.933654,0
7.196268,197.170974,22230.443946,7.295244,331.912779,421.366002,14.302295,67.068011,4.042156,1
7.143038,193.896064,21866.502415,7.167219,334.246566,426.776964,14.349423,66.29133,3.998642,0
7.127822,197.688815,21168.447566,7.006849,333.227526,428.363794,14.470151,66.762255,3.973528,0
6.987959,196.182962,21320.068834,7.010069,332.359543,426.269141,14.022996,63.950237,3.971256,0
7.134913,197.840304,22627.457431,7.093857,330.347164,429.31789,14.156004,66.93053,3.983404,1
7.016228,194.303549,21686.153128,7.168709,333.4293,428.395508,14.49788,65.813276,3.977823,0
7.071256,194.022573,22467.522168,7.049736,332.040887,425.282974,14.075276,65.901287,3.904745,1
7.075759,196.989223,23382.77785,7.076267,328.13528,425.910328,14.248834,66.97204,3.968096,1
7.116766,197.349007,21396.891283,7.093591,332.328043,428.542813,14.298079,66.061759,3.94537,0
7.197173,196.641616,22369.880157,7.294712,331.246652,424.371374,14.265709,66.172973,3.980552,1
7.110772,195.514486,22807.553269,7.102429,335.338765,422.168379,14.27127,66.621058,3.971787,1
7.254687,196.536637,23012.110675,7.17502,335.273888,427.466361,14.250485,65.674574,4.00842,1
7.065871,196.211246,22105.677643,7.048776,332.892693,424.558688,14.250589,66.488584,4.014462,1
7.003377,197.132893,22425.347198,7.228956,333.410109,427.281739,14.443422,64.878903,3.986214,0
8.390501,215.295518,27032.142262,6.553958,282.859453,443.44559,12.841611,46.368219,4.150359,1
7.042465,196.657879,22169.14864,7.162263,328.221091,434.235432,14.688124,67.391505,3.993839,1
7.107915,198.408622,22531.654382,7.195238,334.115053,428.266145,14.266271,64.281493,3.930574,1
7.091883,194.004473,22661.628028,7.262921,329.852128,421.639724,14.426753,67.888195,3.93399,1
5.574756,189.700665,11512.465842,8.720972,329.939631,331.330352,18.016991,66.188642,4.371806,0
7.121983,195.377253,22239.312664,7.170023,332.732474,425.757276,14.32776,66.864729,4.000098,1
7.020959,193.621517,22825.930289,7.08919,330.518297,420.302196,14.30395,67.030701,3.934451,1
7.152474,198.161274,22039.551469,7.27031,333.507712,428.638753,14.424073,67.759608,4.035323,1
7.049087,197.795099,22484.222049,7.11315,329.149035,427.12975,14.406297,66.137557,3.955313,1
7.148004,195.630326,22262.811011,7.1497,331.180562,421.659935,14.143602,67.103779,4.051875,1
7.070195,195.979122,22658.527505,7.225981,336.089224,425.727597,14.418899,66.920246,3.94958,1
7.103805,196.755384,22039.495071,7.155716,332.299316,425.67289,14.29455,65.829079,4.034686,1
5.082241,191.767047,17739.19896,9.111722,309.787515,413.158636,12.307109,88.892555,5.056379,0
7.102846,195.747292,21035.627443,7.107523,332.721233,430.761474,14.401073,65.984444,3.963474,0
7.003571,196.949729,21245.380745,7.029666,335.887073,429.371632,14.411954,66.893225,3.938457,0
7.145389,193.469678,22508.224354,7.156244,335.314014,430.302154,14.169669,67.923066,3.955865,1
6.904537,110.865788,32981.258377,2.621268,368.387038,417.249395,12.11872,33.499381,5.058905,0
7.073328,194.98446,21316.439024,7.117058,332.437784,426.511127,14.399872,65.347432,3.932296,0
7.145457,193.507589,22862.724252,7.169184,331.883922,420.820617,14.589974,65.681118,3.985832,1
6.910765,242.091338,7764.438022,8.04587,440.635509,487.93231,18.376802,45.306539,4.340149,1
7.135355,198.692486,22283.416103,7.448416,331.290081,428.402759,13.98733,66.735975,4.036974,1
7.958871,184.828557,26845.661013,7.673719,327.239109,389.264216,11.032867,52.51052,4.007903,1
6.552847,198.80694,34006.420733,8.691206,274.904351,477.163907,14.36963,78.173063,4.687986,1
6.930391,190.189388,25780.059077,6.259353,331.030251,481.737559,14.049483,70.58636,3.699796,0
7.134788,194.936244,21880.175068,7.186977,335.530488,432.940876,14.431319,64.676132,3.889222,0
7.103225,199.112876,21936.018342,7.010664,333.447479,435.511081,14.156555,65.8881,3.932743,0
7.138828,197.450626,21779.959501,7.117655,332.222465,430.350479,14.363835,66.952548,3.964368,1
6.483995,180.445051,29032.781103,7.301735,326.300098,374.675738,17.885877,75.939716,2.688643,0
9.085637,238.221968,9001.658753,9.820231,325.104847,381.346582,19.19574,98.490819,2.54402,0
7.07282,193.881826,22810.677869,7.212745,336.793572,416.238731,14.213583,68.071434,4.033226,1
7.106391,196.223056,21970.11833,7.153269,329.617414,424.575489,14.045454,66.612374,3.990495,1
5.504452,164.500984,11950.235031,6.800958,302.190494,537.539609,14.393869,69.939822,4.657361,0
7.591346,199.255322,25383.765183,7.924616,318.610478,416.445617,20.118827,48.27121,4.51515,1
6.916297,194.785979,21366.760039,6.985008,333.318682,431.851721,14.26294,65.190968,3.96681,0
3.388091,212.028944,20230.125577,8.569782,349.155999,353.912927,18.20834,82.387874,2.798601,0
7.173362,196.971875,22510.836058,7.217011,332.425708,424.556335,14.393569,66.019395,3.973044,1
7.155609,194.063008,23008.671171,7.087144,331.545927,419.952617,14.122359,67.332324,3.978271,1
7.012565,200.39139,21515.76711,7.143104,334.053475,425.461788,14.287944,65.094918,4.013872,0
7.83398,203.169408,11174.27476,6.246502,394.890809,338.231122,16.276592,47.931639,4.254477,0
6.129637,200.278182,30989.948415,8.830102,348.868154,341.388577,9.300117,79.553612,4.615886,0
7.082235,198.600075,22909.985763,7.090228,333.077232,436.276483,13.871131,66.118582,3.971487,1
7.258364,194.526893,22255.508091,7.139611,335.013527,422.860178,14.042237,66.985243,4.034773,1
6.946019,197.400716,21339.15477,7.044371,334.170954,426.361876,14.414504,66.247064,3.958796,0
7.161459,194.758125,21280.877046,6.991439,334.688689,421.872712,14.217634,65.92362,3.963884,0
6.945643,194.280653,21621.547498,7.072144,331.590896,426.846012,14.323471,66.714212,3.890012,0
7.226835,193.255834,22530.364819,7.273791,337.46197,428.215165,14.04158,67.211448,3.94687,1
7.174754,197.081451,21899.537615,7.208722,335.392451,427.174405,14.047627,66.286382,4.010657,1
7.064477,193.510888,21957.261064,7.336664,331.043243,420.596479,14.353376,67.302761,4.008614,1
7.097154,193.681511,21775.758508,7.060773,333.432368,429.311576,14.239146,65.7191,3.949392,1
7.265289,198.60049,22185.048923,7.320679,338.140111,422.636617,14.231594,67.27533,4.063048,1
6.923564,197.174258,22013.091023,7.104486,337.100101,430.818158,14.275424,67.285613,3.891907,0
7.149125,202.582542,23158.389096,6.067812,302.002743,301.98424,17.622595,42.292766,3.787033,0
7.036192,193.871466,21383.369796,6.938599,334.210832,424.028904,14.413599,66.858069,3.923487,0
7.102954,193.356858,21705.986667,7.16853,331.411907,428.483537,14.246627,66.1001,3.983066,0
7.160702,197.680718,22273.302424,7.153315,332.947316,423.275572,14.273544,66.085446,3.991364,1
7.111733,193.863979,22548.076576,7.219217,332.828547,435.4608,14.464963,65.680632,3.992472,1
7.089714,195.136711,22659.492569,7.284115,330.776083,420.2398,14.010613,67.119851,3.953351,1
7.147115,195.985688,22547.158488,7.274983,328.708206,426.646213,14.23008,65.676143,4.041532,1
6.954909,192.907901,22490.877879,7.066679,329.43591,426.654754,14.563142,65.316798,4.023335,1
7.108729,196.466612,22114.701377,7.181773,328.413952,422.940761,14.315677,65.691988,3.9653,1
6.986095,195.98782,21601.39399,7.071649,336.654718,426.380503,14.48785,65.799492,3.93364,0
7.219768,196.440922,21466.12616,7.037361,334.322389,427.928786,14.251116,65.478617,3.947477,0
7.24522,197.160005,22540.773279,7.160567,330.93892,420.934279,14.530235,67.367006,4.074513,1
7.092088,193.642961,21983.27323,7.203517,329.494601,430.624433,14.383523,66.455641,3.986235,1
7.124957,198.193187,22661.088509,7.256902,337.175737,431.622687,14.357377,66.113643,4.009167,1
7.159442,194.708423,22593.380932,7.19087,331.709383,421.804494,14.354718,65.912073,3.95821,1
7.062912,197.967834,22356.594801,7.138175,332.669644,427.195698,14.259979,65.634756,4.02233,1
7.18208,195.118131,22604.143684,7.202744,331.459233,417.236819,14.142548,66.326999,3.955277,1
6.944813,195.097176,20994.97173,7.04709,331.55704,438.176123,14.519716,66.291259,3.898421,0
7.150149,196.915201,21407.639923,7.190796,331.416106,427.095451,14.331296,66.469462,3.997765,0
7.208414,197.884626,22396.609325,7.186453,336.075373,417.87496,14.278614,66.660898,4.029978,1
7.041731,198.06885,22395.915484,7.308673,329.343591,423.310881,14.315176,67.321414,4.029608,1
7.089127,197.763997,21587.377864,7.11519,335.321524,423.235419,14.389123,65.944966,3.951432,0
6.926446,194.174054,21354.931231,7.105907,330.301492,428.882919,14.075024,65.032679,3.957866,0
7.078769,197.042993,22463.770735,7.356054,332.334502,431.234613,14.232065,65.916339,4.040693,1
7.082301,169.468927,29846.719057,5.443387,350.401849,353.03038,18.959534,30.389096,3.485577,1
6.971577,185.906938,27959.987873,7.21451,349.743879,414.067354,19.882917,36.179003,3.226349,0
7.066812,197.222501,21239.566401,7.127022,333.683634,431.110602,14.328025,67.158913,4.023646,0
7.168777,196.792802,22308.689817,7.330655,334.864444,419.646508,13.923002,65.490933,3.935032,1
7.033321,199.365781,21168.132834,6.94073,336.089813,428.382202,14.493736,65.467444,3.976695,0
4.313219,191.119337,12770.83183,8.231574,284.945949,499.854797,13.501271,76.443961,3.92359,0
7.052286,198.388902,21678.261213,7.123717,333.007996,424.455196,14.406959,66.221351,3.961102,0
7.073373,195.626007,21684.387903,7.026175,333.98614,425.878589,14.777142,66.811551,3.889885,0
7.211373,196.321664,21712.670177,7.164387,331.028606,423.882491,14.475361,67.235564,4.000487,1
7.205725,192.808549,21584.564612,7.286325,330.27975,427.565168,14.069611,67.746709,3.992459,1
8.077261,125.302719,23931.282833,8.773162,317.693331,398.328789,15.279583,62.668356,4.279871,1
7.262889,198.059447,22552.405187,7.19774,329.983331,426.848699,14.401052,65.349664,4.031277,1
7.022297,199.547865,21644.252468,7.196623,331.411141,423.798788,14.422415,65.553238,3.965151,0
7.254297,196.137274,21504.573764,7.071245,333.618124,426.235821,14.335462,67.070666,4.00328,1
7.165877,195.564727,21790.406694,7.270468,333.925401,429.122753,14.452286,65.984673,3.931939,1
6.90834,194.735446,20842.247296,7.13955,332.071525,420.662335,14.591118,66.792029,3.981453,0
7.105324,196.01592,21975.005092,7.056456,333.062469,429.106719,14.265306,68.044265,3.975076,1
6.793072,199.334398,21524.177389,7.051358,332.376671,432.868779,14.226646,65.644977,3.996464,0
7.726135,233.947864,21667.868741,6.313182,340.273171,472.258994,14.39986,36.578038,3.720637,0
7.104807,196.659614,21956.469674,6.962626,332.264528,422.871755,14.392916,67.08763,3.90652,0
6.262799,206.889748,31414.525805,4.528076,349.734662,567.027274,15.96354,73.022605,4.012518,0
7.061558,194.253992,21511.77308,7.035545,336.263265,425.955353,14.237115,65.77761,3.940255,0
6.913339,192.24358,21322.299014,7.061398,335.048143,431.164718,14.371499,66.403143,3.940657,0
7.019868,197.286444,22829.484534,7.183598,333.556226,428.75607,13.993488,66.370195,3.984397,1
7.15999,197.237829,22646.991196,7.275066,331.196174,425.368239,14.250889,67.511364,3.955604,1
7.211459,196.78564,21603.313254,6.94566,334.489095,433.553999,14.186091,66.18357,3.972742,0
7.170185,196.175474,22775.639962,7.184296,329.108689,420.227544,14.58657,66.507188,3.959489,1
7.153094,196.000871,21842.825963,7.114607,336.045712,427.023118,14.503034,66.899937,3.917341,0
7.207002,198.328138,22131.311102,7.139061,331.316277,420.965166,14.446118,67.435967,3.922074,1
9.630665,152.862433,23641.702565,6.925706,333.148318,417.167073,16.670184,89.997574,4.920091,0
7.070223,196.307492,21790.297407,7.068942,337.481135,425.843638,14.42626,65.53006,3.92464,0
7.037668,199.294607,21393.29887,6.983335,331.933109,431.322648,14.35991,66.298162,4.016986,0
7.143376,199.038657,22464.511671,7.133588,335.707333,426.140005,14.331083,66.233198,3.972378,1
7.084257,194.925378,22205.677123,7.1462,332.149817,422.417637,14.325606,66.018903,3.991551,1
6.989442,197.685838,12150.721923,7.984166,341.100115,303.596799,14.330886,70.856866,3.853048,0
7.054831,198.665176,22587.898819,7.168208,327.158936,424.268559,14.19657,66.93122,3.948768,1
6.994309,196.974458,22226.152202,7.197984,332.993857,425.741704,14.332878,66.260168,3.96053,0
7.007978,198.124051,21168.04541,7.069697,332.380996,429.354539,14.267506,65.704359,4.004696,0
9.036504,199.32189,21696.003242,5.970187,350.183841,288.508807,13.400389,73.058067,5.661984,0
7.020513,196.231306,22608.725851,7.193273,336.642777,426.945464,14.408442,65.024937,3.999768,1
5.739816,189.827789,15825.440316,8.11014,313.057332,425.016757,14.899181,81.373907,2.722571,0
7.108965,195.613562,21791.153395,7.224911,333.481834,432.798482,14.370683,66.054441,3.922734,0
5.877974,141.615287,13652.293199,5.701659,279.7824,538.495404,12.034042,67.907258,4.03226,0
7.236175,196.447821,22314.819065,7.066423,332.543238,429.55332,14.148566,67.270634,3.949134,1
4.238283,134.88951,29344.844476,8.180874,351.237362,402.427174,12.427378,83.762653,3.787426,1
7.017114,196.221646,22242.815022,7.025803,331.782826,419.546376,14.130926,67.055902,3.973247,0
7.26198,196.58456,22842.653848,7.121496,329.570363,424.306055,14.328834,64.857919,3.908171,1
7.967345,180.531707,19384.037432,9.868238,325.496848,386.055331,11.265127,67.272207,4.069359,0
7.071132,196.857687,22607.308432,7.122932,337.074875,423.20919,14.058692,66.992542,3.907749,1
7.693555,224.393037,21856.145213,7.04144,275.27197,404.823921,12.848965,63.154905,2.750696,0
6.989139,195.902206,21818.768452,7.148164,335.21371,429.509581,14.129982,66.501268,3.90568,0
6.138785,158.422129,20129.97882,6.812143,352.229961,373.84362,13.417813,80.731097,4.67729,0
6.988487,198.190632,21914.376804,7.003372,332.728493,423.162346,14.177084,67.468068,3.913062,1
7.149945,192.968656,23100.421287,7.12197,332.87162,427.137922,14.257721,65.310312,4.021782,1
7.114926,196.179573,21681.522184,7.017264,333.833405,420.3048,14.328442,67.100235,3.989952,0
7.067189,193.959341,23228.511186,7.165807,334.000372,426.861772,14.015324,66.682255,4.042964,1
6.153496,163.205548,48175.852093,7.153803,299.566751,344.716976,5.15938,55.528949,4.81997,0
7.087816,193.535381,21968.518094,7.26622,330.712361,424.5817,14.321472,67.570796,3.994366,1
7.605675,210.371436,9583.710441,8.509403,371.47169,325.683691,11.781265,86.513474,5.554075,1
7.119531,198.106512,20637.015495,7.079053,332.825022,430.861985,14.519861,65.696622,3.951791,0
7.030005,196.753525,21282.665336,7.07462,331.924081,423.495435,14.325693,66.241611,4.029572,0
6.993006,193.075379,22155.556645,7.084379,332.668589,431.542127,14.361579,66.033361,3.955961,0
7.036889,196.960056,21042.412569,7.160576,334.011594,425.552555,14.421775,65.555295,3.93634,0
4.430281,139.685759,28862.25717,8.961372,298.379458,434.781267,17.299294,63.042501,4.384565,0
7.080281,197.727265,21867.9594,7.018814,335.337745,436.150708,14.462588,67.052596,3.902157,0
8.307463,229.941234,18452.645571,6.895146,338.483703,464.900985,9.512103,84.053415,4.625729,0
6.998228,197.70926,22533.901105,7.139026,331.464395,426.41889,14.411422,67.205853,3.971119,1
6.98339,195.00973,20448.934482,7.161862,333.452231,427.110919,14.436357,67.597012,3.910965,0
7.196925,195.675957,22474.6691,7.271139,335.822783,419.877921,14.527488,67.281351,3.985713,1
7.110905,196.582487,22195.587325,7.201968,330.028075,418.399874,14.046973,67.068911,3.956574,1
7.025733,195.003735,21452.659245,7.111524,329.047816,428.031398,14.355304,65.93731,3.906111,0
7.041558,195.372153,21179.177552,7.1489,332.663046,432.244537,14.315826,66.150098,3.922016,0
7.207203,195.628473,21591.837071,6.966449,332.482211,432.878201,14.482891,65.91084,3.971874,0
7.034207,193.356435,21874.02093,7.085227,333.70209,431.17897,14.698493,66.348988,3.925988,0
7.075261,197.167967,21721.633704,6.92505,333.649024,429.807007,14.516889,67.716741,3.924058,0
7.250788,194.955819,22783.882013,7.147285,333.860131,423.367112,14.190978,66.201998,4.035098,1
7.107119,198.900011,21745.11152,7.079578,331.853735,421.14262,14.463635,66.198985,3.979079,1
7.095907,197.722209,22787.534241,7.003729,332.365558,427.12093,14.355793,66.170576,3.941632,1
7.216394,194.035985,21897.448964,7.060678,333.759688,427.84215,14.55251,66.557538,3.980888,1
7.099909,193.081025,21341.94928,7.157967,332.740437,428.33585,14.499771,65.480696,3.979224,0
7.087157,197.860496,21878.149078,7.10823,336.371559,422.844498,14.323475,66.310414,3.972993,0
7.104857,193.506565,21052.363643,7.048237,333.792587,428.428141,14.397077,66.411521,3.938756,0
7.08723,195.841934,21812.526038,7.21856,331.364675,418.164661,14.380006,66.954621,3.940518,0
7.068927,195.402345,22267.663149,7.251417,338.081607,429.59661,14.307739,66.278961,3.999552,1
7.113572,196.72055,21937.525331,7.071184,332.612041,429.381949,14.313671,66.419867,3.978656,0
7.082025,190.871985,21707.440744,7.104462,328.50299,419.128792,14.170481,66.342813,4.040335,1
7.132579,196.957512,22741.174453,7.349321,333.752854,426.084391,14.22786,66.68874,4.013341,1
7.028426,195.439029,20746.701791,7.149481,333.974438,423.97309,14.094394,65.634277,3.915776,0
7.214903,197.142034,22121.201408,7.036278,328.185681,423.794425,14.443782,66.988673,4.003524,1
7.167025,196.647574,22561.64496,7.233902,328.643679,421.421349,14.167177,66.915023,3.96998,1
7.008554,192.410313,22258.5228,6.968676,333.204178,430.396378,14.562317,66.019512,4.024353,0
7.118858,195.33779,20981.155594,7.052444,335.030576,432.741109,14.556359,66.214764,3.927827,0
7.083986,196.085123,21303.843622,6.935599,329.888639,422.997075,14.563898,67.574709,3.975824,0
7.087149,197.174586,21636.287465,7.278959,331.197416,434.040332,14.158003,65.583444,3.987535,1
7.053627,195.059238,22454.23069,7.137134,335.918297,425.003435,14.086905,65.573797,4.012951,1
7.201232,197.052984,22358.604037,6.949989,335.156651,428.333737,14.305203,66.788223,3.924837,0
10.560745,181.893366,21783.651033,6.99126,340.390378,456.556402,16.482835,34.252049,3.964686,0
7.093379,195.255199,21693.425512,7.061762,334.822299,429.856172,14.261038,65.915684,3.993478,0
7.189917,197.987153,22337.033107,7.370359,332.949869,422.712417,14.501002,66.67574,3.935885,1
7.150634,196.412673,22268.590006,7.04446,334.579409,429.745785,14.032654,66.726699,3.951522,1
7.106314,196.710258,21078.100873,6.917681,335.205849,423.328062,14.454001,66.514099,3.932796,0
7.067504,197.653753,21940.612388,7.215688,333.26809,429.431378,14.274276,64.999047,3.982019,1
7.032428,198.622581,21477.965364,7.157504,332.733447,424.274577,14.311052,66.807456,3.938651,0
7.021685,197.121411,21076.062724,7.147475,331.872268,423.544485,14.307556,65.92311,4.031748,0
7.093139,196.068915,21713.782891,7.179683,331.335939,426.788521,14.585294,66.18561,3.949926,0
7.165889,195.148959,21598.157799,7.166114,331.59248,427.988674,14.358375,67.375971,3.992702,1
7.163315,194.871477,22695.906269,7.076844,333.751969,423.387981,14.108245,66.962539,3.958296,1
7.161071,198.778301,22050.304265,7.09389,331.067778,425.420468,14.270479,67.366542,3.971684,1
7.02123,197.535276,22421.353646,7.181225,331.418735,425.067884,14.30925,65.493909,3.986538,1
13.349889,152.776455,18464.900775,6.717973,334.86407,450.846369,17.192564,85.883523,2.531075,0
9.032563,156.265649,24897.55703,7.639634,416.530533,342.74604,13.599564,62.502108,3.626136,0
7.293968,199.848878,21956.260934,7.070783,331.774114,421.089721,14.221441,67.140764,4.048425,1
2.558103,147.490575,21316.506728,9.142234,312.054239,406.372019,11.519669,83.277583,2.817258,0
9.919478,207.065587,16544.275591,7.039311,363.036851,278.753204,17.05254,44.299534,4.117488,0
7.145798,194.295534,21486.291988,6.99871,334.045493,431.036278,14.546029,65.590309,3.929428,0
6.48189,179.919711,34698.62116,8.538492,338.012323,504.397152,16.409364,59.954815,5.002361,0
7.020687,195.699883,21982.799961,7.047354,335.88872,428.012755,14.102139,66.35155,3.880317,0
7.510943,182.192847,17100.887433,5.948785,357.265732,499.095057,20.725806,60.670939,3.342409,0
9.443359,73.492234,20438.22469,8.024953,315.805659,458.677231,12.538681,50.85247,3.486646,1
7.004538,196.282097,22825.082236,7.258635,332.979528,425.662058,14.386981,65.851816,4.005759,1
7.091604,196.091231,20851.750488,7.008027,332.350169,422.829319,14.470432,65.715082,3.928529,0
7.202983,193.929499,22617.345828,7.232508,333.760557,425.289745,14.244644,67.115086,4.015363,1
6.947443,196.560468,22162.236674,7.121614,335.277288,431.256169,14.15742,65.245783,3.914321,0
7.104595,201.627117,18093.972162,8.474123,361.629187,348.732937,8.582461,49.382684,4.763058,0
7.17113,192.757585,22005.089309,7.130076,329.755562,428.077578,14.39057,66.305159,3.962307,1
7.061071,196.567435,21441.194759,7.02666,331.605057,429.855554,14.326925,64.421212,4.012729,0
7.180149,194.838039,21953.234497,7.227634,333.763663,423.01334,14.454562,66.861422,3.999864,1
7.095094,196.005912,22080.94983,7.086935,329.653364,422.922008,14.325282,66.693853,3.960128,1
7.042909,198.013458,22295.139139,7.250314,329.346968,424.893389,14.337536,65.42113,3.98656,1
7.014923,198.260489,22014.585784,7.102988,332.221547,426.582992,14.18628,66.026727,3.853819,0
7.093953,194.015354,22372.869581,7.18463,330.98259,424.298169,14.03738,66.303119,4.014786,1
10.331273,166.459779,15824.822709,6.396364,361.156178,376.102104,13.844331,52.057381,2.673441,0
7.090286,199.534877,22666.018032,7.187532,333.732739,426.311693,14.462495,67.292252,3.957051,1
6.918939,193.796272,21580.006246,6.973254,336.3129,425.350232,14.709315,66.676904,3.9722,0
7.098472,195.925166,22577.464005,7.17175,335.15744,426.152097,14.152261,66.298181,3.996842,1
7.2022,197.981815,22187.01834,7.040255,335.073902,426.172203,14.445162,66.040934,3.943997,0
7.746343,212.274645,21670.593663,8.458103,361.381325,457.014121,21.430293,43.188803,3.678686,1
6.930742,195.370103,22599.076891,7.179885,334.561747,430.079645,14.445447,65.329206,4.010922,0
6.997289,199.471214,21203.955745,7.037014,337.826819,431.385851,14.314869,66.986604,3.998323,0
6.952731,196.594895,22863.944998,7.196989,332.896291,419.955266,14.080298,65.462765,3.980778,1
7.214558,197.422243,21732.503577,7.265758,332.231798,433.599633,14.470034,66.755192,3.909651,0
7.196197,196.236043,21941.097603,7.029465,334.137537,434.218444,14.425174,66.596528,3.910857,0
7.02038,196.078791,21143.991343,6.976203,334.58223,433.292308,14.160057,66.039442,3.920759,0
7.12823,195.679648,21702.215908,6.998637,332.950093,426.156101,14.199329,67.552946,3.915422,0
6.984224,194.35463,21874.191272,7.030976,335.710587,432.965813,14.504626,64.884423,3.98719,0
7.033659,196.819247,22098.614953,7.1752,332.534593,422.831082,14.249701,65.918076,4.036249,1
7.107998,198.476399,21255.156715,6.968373,334.647025,423.154303,14.237943,66.083126,3.966574,0
7.05758,196.732742,22306.438379,7.224985,332.891411,428.186842,14.168978,66.27685,3.938257,1
7.110325,194.008403,22131.316497,7.277571,330.643725,427.596694,14.159843,67.040171,3.990898,1
7.214649,196.02413,22753.411154,7.277217,334.298363,421.222411,14.262957,65.328741,3.975909,1
7.149109,194.55701,22396.022438,7.13618,335.235059,423.508962,14.479258,66.863693,4.024425,1
7.039598,197.562481,22164.578685,7.104843,333.375397,420.767683,14.172165,66.163716,3.975744,0
9.658662,240.34882,20269.73128,7.050729,374.181674,567.784276,15.587206,55.835966,4.639387,0
7.164953,196.299763,22246.21096,7.265821,334.702731,423.153597,14.514184,67.077215,3.920287,1
7.123589,195.691805,21274.145384,7.04357,334.501072,423.146767,14.45079,66.286219,3.89941,0
7.093871,196.912155,22399.937562,7.09295,327.32214,423.368611,14.219502,65.69847,3.952599,1
6.946376,196.680343,20769.042256,7.150543,333.770482,427.974409,14.258064,66.606429,3.956496,0
5.433242,201.781246,31157.110167,7.286392,304.425275,451.557178,10.842095,87.634013,3.675718,0
7.235142,194.558935,22829.73304,7.089656,332.144929,421.743256,14.172046,67.659749,3.941225,1
7.11385,194.358132,21385.535528,7.063986,335.112289,429.700227,14.104512,66.155339,3.962001,0
7.149043,196.662593,22625.081871,7.196898,330.073609,427.752945,14.066016,67.811997,4.033428,1
6.933214,197.685542,22261.43187,7.134972,331.731197,438.508287,14.340832,66.556577,4.003005,1
6.710634,203.642917,23748.183992,6.726664,342.441433,455.967558,15.879549,63.676952,3.863287,0
7.187473,194.960053,22218.52439,7.200469,326.502119,427.206422,14.417289,67.170806,4.02104,1
5.050748,191.722206,18252.07599,8.118115,284.215072,373.741228,18.045432,91.851938,3.930291,0
7.226946,195.004276,21641.385468,7.080597,335.963571,425.997936,14.221139,65.609871,3.986331,1
7.134356,196.146366,22365.553062,7.304185,332.917708,425.490437,14.205769,66.910825,4.013299,1
7.017685,194.858363,20936.124482,7.240388,336.747711,423.428643,14.395982,65.916969,3.953106,0
7.137929,194.994211,23380.18066,7.215195,334.097467,421.299031,14.562142,66.438886,3.996772,1
4.723313,252.274895,22833.192042,5.922451,378.560304,411.295025,16.584571,66.728402,3.917587,0
7.164199,198.915535,22171.439324,6.992232,331.957476,424.497701,14.384187,66.634592,3.9488,1
7.111716,196.119288,22278.315552,6.981558,333.224785,424.541412,14.254987,66.549043,3.997937,0
7.05333,196.096275,22774.500517,7.117389,328.055123,427.941984,14.269499,66.697257,3.996712,1
7.138609,196.56668,22081.649162,7.229435,334.384999,427.369185,14.274463,67.559924,3.994785,1
7.226402,194.040831,22690.770995,7.157614,330.992084,421.973759,14.154835,65.753586,4.035261,1
7.138723,195.230549,21761.72983,7.129529,333.566348,424.476426,14.342032,66.701571,3.958044,1
7.167548,198.447806,22037.975164,7.320601,338.01975,431.75681,14.373832,67.039451,4.010988,1
7.12192,194.945938,22904.492527,7.207347,331.212978,423.240743,14.365715,67.48976,3.914348,1
6.891852,194.122917,21464.322227,7.178375,333.218863,419.082822,14.35304,64.768984,3.932636,0
7.035009,194.634656,22145.53886,7.191469,335.636715,428.323963,14.352621,67.543202,4.041242,0
4.931958,164.666769,31155.540218,7.411483,383.782626,506.531414,14.980034,69.249229,5.045983,1
6.986434,197.065655,22016.653877,7.039799,331.678324,426.581487,14.456735,67.553724,3.918652,0
8.003031,186.463082,15007.272682,7.697324,355.726006,561.613187,10.153233,67.000351,3.137551,0
7.063647,140.612866,17941.811256,6.275305,376.046156,402.593602,12.43974,29.468428,3.395866,1
7.239855,196.83813,22264.103676,7.29906,330.780768,422.735819,14.273297,65.439643,4.064589,1
7.146052,195.66032,21560.354584,7.115224,331.05791,430.723875,14.516121,66.531504,3.913724,0
8.937802,147.916892,10562.460539,3.694275,371.176313,480.320218,16.980755,61.158047,2.831234,0
6.82393,146.130599,13467.87978,6.423224,289.57646,412.840506,14.307687,81.529534,4.016144,0
6.913421,196.921275,21761.463254,6.920604,335.392582,432.208342,14.025918,65.699801,3.948773,0
7.223862,196.327196,21746.332346,7.050918,339.906465,425.478077,14.73138,66.022906,3.984857,0
7.118852,196.396852,21714.074626,7.186811,334.264241,427.260877,14.419631,65.336153,3.978927,0
4.838571,241.135975,18328.40262,7.403239,237.517456,355.275454,12.717352,75.398283,4.580372,0
7.051069,196.992825,21365.495841,7.005069,333.495734,423.877288,14.380299,66.389421,3.988361,0
6.96162,198.494778,21840.073768,7.083698,336.229043,424.972982,14.345197,67.073785,3.921201,0
7.065384,195.263276,22136.708038,6.986312,332.881605,428.417529,14.055674,67.364019,4.006443,0
7.202888,196.714305,21676.340652,7.099813,335.669413,429.778584,14.33777,66.433222,3.869216,0
7.539338,227.316128,12610.936307,9.507585,345.139235,343.242711,12.76907,82.826282,5.114129,0
7.078701,198.279538,21529.566231,6.974942,335.372201,421.121805,14.266201,68.113343,3.979873,0
6.115638,240.975156,15765.786718,10.088345,339.40244,407.319539,21.305048,63.071597,3.723625,0
7.165142,193.982886,22335.668453,7.204815,330.925474,416.322238,14.502913,66.68379,3.994609,1
6.913527,196.18607,22447.944792,7.089534,335.332855,430.795174,14.400806,65.073123,3.98149,0
7.186507,197.386351,21414.664411,7.08316,334.533603,434.264747,14.704752,65.58571,3.928645,0
6.919524,196.903706,23327.393536,7.07475,331.106005,424.589074,14.518774,66.053323,3.973348,1
7.027529,193.503988,21441.564185,7.0582,334.191859,432.45026,14.180013,65.328757,4.002772,0
7.137131,194.920942,21679.274591,7.076458,330.983504,427.007894,14.559775,65.970149,3.923176,0
7.049573,195.843285,21566.015572,7.135624,337.422144,433.406327,14.296984,65.577477,4.013856,0
7.138234,197.153228,23091.424535,7.209664,332.870286,420.446298,14.234821,65.558718,3.93293,1
7.211392,198.808111,21358.598014,7.181926,332.786701,422.888163,14.614752,65.992728,3.916116,0
8.028304,204.783735,20408.485598,4.531581,406.328921,515.575097,21.558863,70.547218,3.915991,0
7.128743,195.161288,22814.810144,7.16364,332.120616,430.273569,14.267737,68.558983,3.951132,1
7.042116,197.862185,22893.226435,7.136411,336.440381,421.685949,14.296272,67.45526,3.994968,1
5.092757,239.740916,28390.891358,1.390871,258.444294,452.306042,13.837352,71.512053,4.636729,1
7.251125,196.060741,21511.325719,7.084028,331.981913,427.165924,14.439287,67.005093,4.004001,0
7.185458,195.956013,22557.852595,7.304417,329.540626,431.490913,14.16763,66.348226,3.97684,1
7.095697,195.268699,21691.690583,7.130682,330.433127,431.230971,14.526249,63.904932,3.956106,1
7.015245,197.495861,22125.110423,6.964836,330.657981,422.767309,14.272245,66.213649,3.967229,1
6.994342,195.868195,20719.92958,7.044989,331.667115,432.391362,14.449807,67.412521,3.904135,0
8.549693,236.861505,17828.294524,4.752268,341.036337,423.11008,15.313243,80.931305,3.039019,1
7.258773,196.203235,21681.604498,7.094772,335.352859,427.700312,14.603963,67.244265,4.022051,1
7.164279,196.819755,22130.895075,7.206706,333.515344,428.074897,14.642354,66.782648,4.02115,1
7.084717,194.827564,22223.152542,7.082184,332.130704,419.89041,14.48417,66.937886,3.927251,1
7.112429,192.140782,22260.068889,7.312616,330.074342,424.970316,14.231541,67.081637,3.928972,1
7.23448,194.832195,22027.803638,7.160097,333.878345,423.286471,14.109022,66.375862,3.992638,1
7.049598,198.007101,22960.860189,7.178033,330.20828,424.054962,14.199637,67.845999,3.988875,1
7.033825,196.238208,21670.276575,7.050371,332.341203,430.6651,14.376134,66.396188,3.94422,0
7.053383,199.303521,23403.853344,7.160271,329.38866,425.306498,14.496398,66.80717,3.959326,1
7.087936,195.991906,21651.85878,7.128507,332.358632,423.515217,14.230805,66.134091,3.965971,1
7.127064,195.568771,22022.198654,7.042853,331.528316,432.253504,14.340714,66.768926,3.969741,0
7.106947,194.232461,21708.701594,7.179006,333.409833,421.032531,14.410346,65.991503,4.051754,1
7.063486,197.749341,20931.12647,7.052685,331.792845,429.258918,14.460645,65.911572,3.991036,0
7.15085,196.184271,21479.395986,7.048512,335.556843,430.392549,14.258502,66.224483,3.936823,0
7.125398,194.199899,21623.049058,7.143678,325.739839,420.114056,13.978171,65.345409,4.005933,1
6.930754,195.524053,21913.139305,7.128336,332.168523,421.537658,14.417203,67.926013,3.937899,0
8.384623,166.87838,29956.363018,9.778123,307.362943,546.482329,17.370262,37.835643,3.68278,0
7.211015,196.200574,22693.697408,7.244555,333.403772,427.606919,14.433856,65.877754,3.990723,1
7.089318,195.970212,21771.547496,7.205278,333.11869,429.223818,14.146254,69.050937,3.901788,0
7.155717,197.570007,21620.156099,7.046441,335.046047,430.279163,14.202768,66.083724,4.001842,0
7.167785,194.988384,22089.630719,7.245872,329.13073,430.028688,14.40524,67.241807,3.932241,1
7.223831,195.032749,21367.935427,7.102968,332.709333,418.671089,14.577515,66.344603,3.925292,0
5.539534,200.711681,21021.418259,9.827309,390.554156,437.341655,14.95589,67.169816,3.75566,1
7.230215,196.270345,22012.4583,7.09059,330.191627,425.251574,14.302644,66.386657,4.000046,1
7.046234,195.318061,22395.3543,7.218526,334.650638,425.945896,14.183521,67.191805,4.006898,1
6.990179,199.728517,21940.911334,6.989327,333.631229,428.394153,14.4855,66.532762,3.944954,0
7.156194,198.423115,21951.552771,7.314738,330.922136,427.381619,14.2313,65.786224,4.002445,1
7.053016,195.708566,22522.647934,7.314157,335.676696,421.923529,14.084702,66.229924,4.032658,1
7.082537,197.996648,22084.877391,7.094126,336.028546,424.226982,14.52319,64.574625,3.895365,0
7.159331,195.801602,21525.69908,6.983825,334.324908,427.264658,14.607512,66.105375,3.938908,0
6.999852,197.280501,22252.988051,6.925327,331.841674,434.975641,14.104569,65.969658,3.96772,0
7.105843,193.566462,21257.007037,7.043797,334.857068,429.04957,14.38985,65.908938,3.974368,0
7.123857,195.363287,22294.687873,7.12284,330.403158,422.492011,14.262221,65.747586,3.968579,1
7.119316,197.281934,22320.921926,7.270173,334.648876,426.426229,14.135289,67.129705,4.050251,1
7.017891,195.619077,21568.406358,7.074414,332.143618,423.600281,14.315492,67.486931,3.948227,0
7.091422,193.938637,22776.422274,7.101983,335.219731,422.314581,14.401645,68.017219,3.946721,1
7.162251,197.196173,21421.915271,7.184837,332.96206,430.457939,14.343575,67.113564,4.022773,0
6.961679,196.097034,21400.785714,7.114372,332.672875,420.922094,14.567631,67.01104,3.947111,0
7.147169,192.445239,21609.587438,7.150855,333.782484,428.974541,14.149157,67.373507,3.936997,0
7.023236,196.695363,21903.691278,7.147041,334.815729,425.9616,14.456894,66.073932,3.911793,0
7.180378,195.831592,23348.992461,7.138932,329.849176,422.468624,14.313918,66.591277,3.958137,1
5.575921,223.374007,14553.132308,9.689175,234.609808,252.968328,12.249489,59.523003,4.294448,0
7.121801,195.660427,21910.457214,7.199861,330.710576,429.139651,14.635034,66.097763,3.893274,0
7.081048,194.841878,21788.61392,7.084425,335.801383,427.198372,14.431901,66.076013,3.961184,0
6.309892,133.649925,31062.371915,6.975602,252.108925,381.058776,17.200008,71.181544,3.60304,1
7.127711,173.690102,19309.570454,6.533392,372.537225,295.385825,7.273399,88.790927,3.396185,0
6.921602,196.777398,21395.018461,7.020647,335.646135,423.085284,14.496993,66.435446,3.881072,0
7.167826,195.792251,23102.399352,7.145817,332.63005,424.274406,14.363762,67.399437,4.004982,1
7.009624,198.004478,21634.796155,6.943285,332.43138,430.796534,14.252773,65.532432,3.94317,0
7.894323,176.319304,11697.606972,8.198106,376.783989,383.019101,12.677488,57.280265,2.865031,0
7.100227,197.200253,21577.384779,7.086488,332.285551,432.749288,14.321367,65.759424,3.962436,0
7.134087,195.095966,21846.505231,7.180736,333.245358,419.904069,14.21986,66.436195,4.001905,1
7.224714,198.582905,21546.181537,7.101551,331.304022,429.928332,14.070648,67.573021,4.004999,1
6.191241,231.322797,29778.357877,4.381097,248.304391,488.954164,13.022135,54.060851,3.315071,1
8.74223,179.409804,9694.354896,6.577128,368.504321,323.744012,13.92501,85.779324,2.842393,0
7.228696,190.574276,23032.381515,7.258208,326.76152,424.114065,14.536533,66.472643,4.014821,1
6.995058,195.156583,21643.674991,7.30182,338.155914,425.149688,14.499526,66.41582,4.025068,1
7.210848,195.593792,21456.573697,7.171832,335.108561,429.217632,14.420021,65.441083,3.981573,0
7.105246,194.412813,22241.063176,7.08485,333.730652,427.035508,14.297923,66.911061,4.006179,1
5.289618,194.056393,21776.170174,6.278293,359.099733,353.77293,14.181471,33.592031,4.5481,1
7.021771,196.607433,21801.973543,7.028872,332.645465,431.14065,14.3628,66.33613,3.913237,0
7.079003,196.408689,21472.489476,7.106609,332.789549,423.732351,14.311771,67.145794,3.920743,0
7.122147,193.407468,22659.061868,7.107313,330.268086,424.276982,14.208337,65.748899,3.974008,1
8.842464,229.964422,7839.31876,10.50881,278.428265,370.085153,15.790977,77.166619,4.576729,1
7.059712,197.436831,22984.657332,7.159055,331.222516,426.025011,14.225845,66.930376,3.9679,1
6.997849,196.537572,22197.789758,7.150857,329.612119,432.862212,14.06779,67.32041,4.011063,1
7.181734,196.944258,21970.015476,7.023096,336.143257,428.325071,14.378642,66.454496,3.966809,0
8.775047,191.526874,21768.640744,4.751005,387.245552,435.523398,11.875184,56.029098,3.830699,0
7.085119,194.268769,22708.200177,7.329167,338.326934,420.166824,14.39125,67.851142,3.971781,1
7.098897,196.949296,21740.492604,6.946757,330.914148,424.0909,14.065108,66.145143,3.879884,0
7.128661,193.260634,21639.208272,7.123745,335.485151,425.327538,14.399831,67.449789,3.987166,1
6.365497,205.056536,7040.737621,11.302831,325.328543,371.579634,16.352858,74.312592,5.125417,1
7.07035,196.82983,22425.356781,7.14992,329.423934,424.439319,14.022319,67.308713,3.934238,1
7.122894,201.402297,22005.231758,7.180138,333.448659,429.565092,14.386993,67.381487,4.03735,1
6.028349,225.674872,12145.544596,6.12627,365.961711,503.112147,15.651888,73.400578,3.142084,1
7.089522,197.508861,21376.942609,7.010156,330.783037,423.717476,14.420661,65.679063,3.886771,0
7.345138,202.174463,17032.773734,6.212629,361.440487,600.295028,17.29974,89.077865,4.297995,0
7.008835,198.051005,21583.626729,7.119721,335.3191,423.327859,14.473874,65.145313,3.944083,0
7.05957,194.291318,22583.790054,7.143133,335.324731,419.934158,14.403488,66.270011,3.931338,1
7.063834,195.837639,22676.480993,7.166314,333.621339,419.686494,14.466409,67.361889,3.999825,1
6.923987,198.685327,21112.02025,7.219488,333.739015,421.700051,14.33917,67.378331,3.990996,0
7.046843,200.018637,22141.561335,7.230372,336.078499,428.513336,13.998736,66.526642,4.019584,1
9.514627,215.725527,16553.562437,7.547859,321.776213,453.91849,9.640241,57.865423,2.645036,1
7.1085,193.094124,21629.304257,7.078814,331.75557,430.117146,14.514146,66.210485,3.946273,0
7.030772,194.38999,22830.710178,7.306419,333.133562,420.83025,13.935207,65.969909,4.00911,1
11.53488,183.262261,4111.785432,7.416773,398.955345,475.255395,10.839796,69.420035,3.000096,0
7.114528,194.197731,22039.051731,7.098292,331.47014,424.950254,14.482878,65.014356,3.976684,1
7.082795,194.598817,21715.996667,7.149727,330.802526,422.345738,14.255186,66.096419,4.063579,1
7.145329,194.490167,22909.659538,7.17753,332.140793,427.186419,14.23001,67.811478,3.958458,1
7.031226,193.260119,22144.84381,7.00374,331.748327,426.131254,14.401951,66.646928,3.992274,0
7.132057,198.652174,21081.812041,7.13244,332.901433,425.693169,14.366257,65.190665,3.94797,0
8.725393,213.610372,18862.673054,8.670127,324.027106,396.22901,20.055737,96.59146,4.565542,0
7.121176,196.005911,21607.736156,7.063069,332.417756,423.278782,14.2575,66.516558,3.980225,1
7.167244,197.457129,21841.329065,7.186906,337.822995,422.409335,14.603911,66.906084,4.032619,0
7.08236,197.851987,21566.321853,7.066988,332.590082,433.864483,14.336841,66.586603,3.961323,0
7.032965,192.958498,21557.53555,7.091555,336.10375,430.598254,14.250301,66.954625,3.943156,0
7.195546,195.351304,21210.292778,7.077799,332.615898,416.998744,14.282916,67.483798,3.98349,0
7.053202,197.565874,22306.345142,7.311931,334.650302,426.61741,14.209022,67.086986,3.952726,1
10.200645,182.080601,8016.202938,5.567501,337.78158,291.600283,13.469924,50.567372,5.17472,0
7.129435,195.240256,22002.242073,7.050025,335.070481,432.939672,14.544964,66.471285,3.943684,0
7.091984,196.501422,22889.671955,7.17562,331.492559,430.685442,14.209348,67.279474,4.003042,1
6.961478,198.251094,21838.118247,7.040147,332.998181,427.21061,13.976292,65.71354,4.041237,0
8.210444,167.102192,13933.08536,10.422842,243.485942,391.068874,13.747058,61.05821,4.976055,1
7.056992,195.464248,23472.623444,7.031848,331.654343,429.860095,14.25231,66.078889,3.964111,1
7.169316,194.678788,21754.027379,7.011127,335.496674,425.178893,14.215958,65.689372,3.90353,0
7.05011,196.436361,21680.419922,6.998809,332.46031,426.376962,14.678889,66.504878,3.905462,0
7.044216,195.467816,21092.093425,7.038502,333.116256,426.584773,14.546903,66.466243,3.951542,0
7.041975,199.908714,20741.653539,7.214336,331.280113,426.793886,14.09514,66.620066,4.009639,1
7.15288,194.457701,21906.971465,7.140357,333.271728,427.354617,14.209008,67.252814,3.943104,0
7.822492,208.63672,22308.821729,5.850328,408.123255,502.789396,16.135732,60.393982,3.835332,0
7.044004,196.433684,21608.454624,7.237675,337.494922,424.296316,14.377116,67.176487,3.915997,1
5.821262,204.04889,37174.005414,7.867815,329.019554,466.783264,13.988707,96.826961,4.371079,0
6.877922,193.730142,21999.887305,7.124981,333.214363,421.468599,14.128358,66.420415,3.98094,1
7.029869,194.568924,21922.987997,7.103837,332.262377,432.727693,14.566475,66.879284,3.993889,1
7.037162,197.343569,20841.786275,7.113742,332.860197,428.75463,14.255422,66.851527,3.934922,0
7.02732,194.323037,21887.309994,7.092535,334.896501,426.793509,14.380903,65.708377,4.045053,1
4.725786,249.670999,20834.294278,5.03601,378.998684,411.114485,17.769641,78.817436,3.156331,1
7.997176,214.819627,20575.57316,6.191399,312.008094,513.540398,17.703104,70.291214,4.817668,0
7.045022,196.669228,21396.769478,7.107949,333.359497,425.491297,14.284135,65.5013,3.973479,0
7.23564,195.448123,21872.307757,7.070058,334.809878,424.856939,14.61512,66.923458,4.015828,1
7.163203,195.475493,21872.996455,7.17273,329.445858,423.871438,14.193921,65.041353,3.970344,1
7.99809,241.000277,9609.740605,9.842346,229.575561,428.882366,14.990567,39.842379,2.626547,1
7.027574,196.504168,22144.813459,7.142298,333.596845,420.027886,14.258083,66.633052,4.024616,1
7.061935,198.833355,22146.266238,7.123167,330.589332,433.072023,14.175948,66.438124,3.99416,1
7.026868,196.669144,21851.703704,7.119626,333.974144,430.386543,14.525985,65.960227,3.911403,0
7.200705,196.431281,22835.498527,7.131898,331.699847,427.769171,14.115098,66.376233,3.912995,1
6.954155,195.942652,21918.490028,7.070987,335.786697,424.220515,14.430483,65.260144,3.934712,0
6.899459,198.271374,21553.710926,7.096256,333.058736,429.108083,14.60924,66.542792,4.008675,0
7.21323,192.681818,20863.804404,6.946121,335.083368,422.182414,14.284065,64.458411,3.928453,0
7.151321,194.060581,21980.736783,7.142136,333.573353,428.614665,14.454056,67.958788,3.933488,0
4.26527,199.499451,25634.533284,5.914884,260.261206,300.547929,12.198732,55.942366,4.900446,0
7.14612,195.138553,22434.252614,7.132234,331.906217,422.857891,14.294913,65.980932,4.032984,1
7.055481,191.79081,21372.448488,7.110012,332.330615,423.624579,14.266273,67.139846,3.991776,1
7.026176,195.057528,22004.479639,7.18508,330.356563,426.121122,14.37978,66.357161,4.006107,1
7.056383,196.927836,22849.928691,7.1346,331.993973,425.369131,14.472085,65.700031,3.950847,1
7.015733,200.893281,22668.193418,7.223566,331.421905,421.793307,14.311362,66.204454,4.034352,1
7.23024,193.791784,22076.865778,7.168882,334.402268,425.639992,14.292513,67.359847,4.049724,1
7.134205,195.514345,22742.625626,7.136121,332.573644,419.654183,14.451096,67.806252,3.983867,1
7.053515,198.117961,21956.235058,7.280397,333.161843,441.125424,14.59994,67.079045,4.015173,1
7.691486,155.185319,36578.223745,7.690728,405.169386,536.889589,16.214966,77.582051,4.042497,0
7.063231,195.627612,21917.217405,7.112366,334.643708,424.037291,14.447933,67.055818,3.968646,0
7.159265,199.116595,22393.745949,7.125642,334.679848,427.888063,14.311964,65.954086,4.014188,1
6.069364,200.916263,9323.21829,9.387522,325.466983,450.441352,12.42338,73.914026,4.914809,0
7.014491,193.860642,22185.607071,7.264799,332.48105,425.802943,14.280875,66.766444,3.950397,1
7.005373,194.98919,21782.803099,7.067566,335.501762,428.787984,14.492356,66.792588,3.915991,0
7.076534,198.492416,23039.044985,7.17922,333.274596,427.586696,14.389912,65.97908,3.93912,1
7.184143,198.754918,21659.479216,6.976711,335.284459,427.048746,14.297329,66.451995,4.003103,0
7.123024,196.477494,22912.725988,7.174009,332.807444,423.072842,14.380705,66.891128,4.049896,1
7.219898,198.380362,22746.672887,7.345995,330.29654,426.752826,14.206558,66.977197,3.954803,1
7.308953,194.525524,22213.613016,7.249767,329.368185,422.119013,14.274478,68.493733,4.054341,1
7.287286,219.695123,18085.502818,6.010569,277.329713,406.564794,16.136766,53.677449,3.504265,0
7.210665,199.740626,22333.909958,7.304123,329.114517,429.55722,13.962873,66.012091,4.026486,1
6.582764,219.184814,21961.526917,6.987978,348.900016,341.209936,15.178368,68.981966,3.66888,0
7.149008,197.071984,21613.801141,7.060427,332.015898,427.98504,14.771064,67.066412,3.949949,0
7.108211,195.751275,21956.740489,7.132417,334.51583,424.094565,14.516008,65.368791,3.972534,0
7.045314,197.091904,22093.541311,7.231155,334.555557,427.832822,14.453434,67.171911,3.935607,0
7.074685,194.11915,23226.946957,7.311605,332.592448,417.144024,14.453452,67.49079,4.009244,1
7.131302,197.926481,22406.04234,7.160678,331.807896,430.799296,14.257551,66.302062,3.947229,1
7.092415,194.847013,22482.327623,7.160757,336.973079,429.186238,14.425433,66.767643,4.057441,1
7.098127,193.024843,21548.230313,7.284896,337.845712,428.204685,13.95993,66.02497,3.965965,1
7.048965,196.922112,20807.572278,7.028379,336.030849,436.394696,14.16993,66.332273,3.931218,0
7.138078,198.272274,22280.405235,7.209796,330.834113,424.840078,14.439203,66.538849,3.959171,1
7.08257,196.339261,22226.761832,7.393618,335.162059,422.890883,14.475901,65.735025,3.979264,1
7.007163,194.613131,23351.131694,6.983472,332.170668,415.668239,14.411221,66.464136,3.914236,1
8.197353,203.105091,27701.794055,6.472914,328.886838,444.612724,14.250875,62.906205,3.361833,1
6.6847,193.840931,34157.184474,9.876574,344.535407,498.063996,8.818757,66.659352,4.03066,0
7.151355,196.14384,22205.561649,7.004417,332.611728,422.540957,14.430179,67.378799,3.911671,0
8.900865,211.306812,9592.151333,8.863272,348.43782,333.775327,18.267951,68.33317,4.518751,1
7.013909,194.703941,22334.905391,7.297012,330.103441,419.879568,14.292295,66.033674,3.982502,1
7.060125,196.214882,21676.242815,7.006645,336.004508,425.342427,14.357731,65.523675,3.98659,0
7.189045,196.052832,21387.891976,7.025974,335.310297,431.464912,14.31505,67.199062,3.980782,0
7.112411,192.930954,21255.815844,7.028764,333.013237,427.580598,14.353866,66.235479,3.946294,0
7.122041,198.422857,22367.180943,7.170006,331.565664,421.790874,14.301722,66.693647,4.039301,1
7.109069,194.470605,22445.734032,7.173092,330.870158,420.958259,14.350186,67.89418,4.015975,1
7.077921,197.869399,21349.335368,7.10642,332.956937,427.531625,14.079497,65.684569,3.95844,0
7.016267,200.100422,21933.151499,7.010819,336.155848,435.389554,14.486768,66.728714,3.95248,0
7.148413,194.686754,22087.619301,7.324377,332.049712,431.8753,14.184394,66.039476,4.002201,1
5.386638,206.896806,20416.65103,7.312752,356.384272,525.123471,10.218185,70.033119,4.3209,0
6.933086,195.745764,21600.657243,7.07284,334.813929,434.944559,14.420743,65.80659,3.927354,0
7.205512,198.553028,22768.560662,7.028674,330.784045,423.923105,14.09862,66.406094,3.981799,1
7.070613,195.360831,22232.227028,7.22077,329.879419,432.229513,14.28991,67.244859,3.938698,1
7.065218,193.997424,21308.831225,7.258336,334.775789,432.922262,14.456218,66.820943,4.005932,0
7.159928,196.625279,21904.848765,7.276314,334.719597,424.311208,14.21538,67.022876,3.999514,1
7.199221,197.813671,22147.327764,7.043617,334.285914,431.89029,14.429735,66.38474,3.869819,0
7.092914,196.522122,22726.691046,7.110778,334.65271,422.530692,14.316699,68.024076,3.949606,1
7.062945,195.565352,21720.348743,7.120352,335.371081,434.93803,14.352345,65.939311,3.951705,0
7.206227,195.380055,21913.529821,7.250124,334.14013,424.954801,14.267894,68.71707,3.99728,1
6.987324,193.822185,22425.512674,7.01868,331.253443,426.919623,14.059051,66.541982,3.953899,1
7.086849,198.521845,22952.842446,7.126034,335.360625,429.100305,14.339419,66.442448,3.947693,1
7.1013,193.946532,21797.073585,7.100961,336.020221,427.892163,14.534317,64.827571,3.95543,0
7.132431,195.254893,22083.647743,7.337883,333.452513,419.64807,14.223705,66.186006,4.014842,1
7.090802,194.371839,22650.270053,7.131018,333.754744,428.991028,14.361408,67.163052,4.014415,1
7.008673,195.377332,21235.419914,6.9402,334.323107,432.407228,14.352204,66.69742,3.970748,0
7.146372,199.036684,22119.56238,7.108384,332.898712,428.969832,14.249193,66.228156,4.044896,1
7.059698,195.28177,21228.126675,7.16901,333.212447,431.619481,14.448481,67.265189,3.962363,0
6.900361,196.515136,21378.865817,7.008369,334.636622,431.601478,14.520201,67.283018,3.891102,0
7.115863,196.023218,23262.284531,7.239467,334.855063,430.279708,14.224494,66.150203,3.971452,1
7.074776,197.116737,21098.606225,7.142379,331.932897,433.034834,14.529836,65.424231,3.963248,0
7.122927,192.86366,23125.16404,7.155693,331.099131,423.763226,14.50109,67.59587,3.968277,1
6.259268,130.374272,9734.677103,10.282329,320.359766,399.350709,10.846787,43.420195,3.932142,1
5.508156,192.226546,12137.099597,5.230477,433.021506,405.48551,8.512225,54.91513,4.571406,1
7.038297,196.686847,22353.853994,7.244741,330.559735,425.10206,14.481985,66.44803,3.913507,1
7.002905,196.758665,22709.653734,7.328195,334.838326,427.992057,14.323381,67.912737,4.018,1
7.125383,194.853437,22365.333637,7.170498,338.043532,432.591582,14.164792,64.800829,4.021711,1
7.152854,193.832747,22567.821831,7.194478,331.721919,427.782159,14.344833,65.871715,4.047959,1
7.062519,195.41841,22263.954642,7.260546,333.718996,421.273007,14.062434,65.476052,3.959009,1
7.173475,196.809005,22377.405523,7.104301,332.34918,422.620218,14.192257,66.511082,4.053582,1
7.127695,196.958685,21875.72977,7.263308,332.278069,421.733858,14.40246,68.87503,3.918448,1
6.901863,164.723486,20442.615014,5.163931,341.537089,468.41635,10.362623,65.694878,4.047907,0
6.991605,193.797274,21620.12578,7.139608,333.298575,424.925859,14.454387,66.187581,3.970042,0
7.134018,197.084434,22043.840061,7.106621,333.615484,424.491888,14.214468,67.745282,4.036918,1
6.987866,194.362534,21786.728198,6.958275,332.785901,423.577491,14.460875,65.929029,3.983907,0
7.02679,194.687618,22151.890171,7.246587,331.47192,424.436464,14.187187,65.419195,4.029314,1
8.251218,167.385353,17617.876309,7.044433,323.400032,277.412711,12.49351,61.275234,3.495063,1
7.157023,197.000849,21157.810936,7.049068,332.110842,429.304171,14.251476,66.751117,3.978028,0
7.227731,197.480256,22694.335356,7.228194,333.720987,425.625515,14.230844,66.466455,3.915971,1
7.039877,191.910774,22383.824568,7.202023,328.365323,428.794705,14.22914,66.51967,3.960298,1
7.089437,195.226559,22813.143069,7.159767,331.121041,425.498758,14.370323,66.633038,4.028611,1
7.100016,197.331869,23409.344086,7.376446,330.370786,430.401058,14.208565,66.852505,3.925923,1
7.120007,196.646577,21373.836201,7.202155,332.794133,422.166944,14.360098,68.643167,4.02012,1
7.208633,194.89052,21504.721057,7.031362,331.396058,436.011684,14.396475,65.237142,3.948903,0
7.032438,193.581623,21013.130537,7.230034,334.614789,423.062076,14.660572,67.082667,3.963662,0
7.024906,194.277818,22046.486385,7.127318,334.121812,429.467369,14.141564,67.958114,4.087918,1
7.044535,199.518485,22608.219431,7.219317,333.003925,426.237748,14.472156,66.439156,3.987059,1
7.013626,196.329957,22799.414449,7.222718,335.17507,426.560382,14.276968,67.817771,3.970547,1
7.071764,196.569173,21848.625879,7.034232,330.092648,433.906003,14.352427,66.993666,3.952394,0
7.207356,194.516468,20969.309711,7.119661,331.726486,431.212953,14.33386,66.227557,3.93495,0
7.082232,199.821226,21621.975116,7.003939,333.973091,434.005916,14.355525,66.2795,3.987718,0
6.988316,197.480756,22248.652683,7.065404,334.197333,421.134645,14.571573,66.753361,3.963992,0
7.09455,194.863963,22117.617579,7.054976,330.673093,432.290389,14.191622,66.443742,3.959214,1
7.195712,194.506039,22375.772631,7.128641,330.94862,424.207913,14.082253,66.352504,3.938441,1
6.42064,180.293,26034.528198,9.710619,308.957886,473.064824,17.724396,57.596636,3.13994,1
7.131096,196.701235,22541.39788,7.111686,331.211778,425.882196,14.200276,64.966911,3.965685,1
4.489784,188.251939,14906.047922,8.48603,374.226926,518.585253,11.226578,65.182759,3.776226,0
7.066171,195.12413,21580.154858,7.089374,332.709004,419.547641,14.213244,66.730563,3.888445,0
7.110967,196.795588,22863.592717,7.09801,333.18744,425.105182,14.325468,65.866403,4.041066,1
7.163592,195.215854,22211.270932,7.137158,333.038242,418.346521,14.269782,65.007437,3.970324,1
7.041198,194.132268,22278.143943,7.316662,336.42797,428.535547,14.141948,66.056195,4.065567,1
7.093988,194.253907,23044.047879,7.219015,331.789591,423.366943,14.260093,66.196563,4.019701,1
7.042793,198.732599,20880.821893,7.170667,337.035639,429.139759,14.411201,65.587276,3.907727,0
8.895574,107.383327,27622.746268,6.16332,460.107069,444.929584,13.995136,78.348415,4.754235,0
7.092571,196.562643,22116.013086,6.967955,335.020308,431.393613,14.141217,65.021287,3.943104,0
6.951591,194.469045,22374.090236,7.244135,332.32899,429.142133,14.031868,67.119706,3.987745,1
7.230617,196.52927,22471.16415,7.234036,334.938387,427.207802,14.449641,66.063033,3.943845,1
7.387434,214.293032,11694.635285,9.273679,375.505583,356.805855,15.184509,80.231172,3.830577,0
7.055271,194.438039,23315.642072,6.987828,335.333843,432.761155,14.216172,67.202658,3.987946,1
7.073921,195.130398,22494.662384,7.123344,334.175237,428.384154,14.353098,65.375484,3.994736,1
6.972972,197.929998,21891.678021,7.034415,332.650057,427.591118,14.330479,65.467316,3.970327,0
7.11271,198.048844,21477.233662,6.994065,336.171512,428.707587,14.577864,65.25834,3.951887,0
7.059334,195.113345,21609.443455,7.122219,335.765675,430.521472,14.296702,67.475868,3.95552,0
7.096163,196.709888,22497.381004,7.266863,334.146783,424.634512,14.202549,65.938877,3.972301,1
7.07248,195.861225,22582.719034,7.080674,335.382187,421.157169,14.256152,68.445658,4.029454,1
6.933148,196.464875,21212.888796,7.228721,331.263849,423.807029,14.43623,66.130443,3.972126,0
6.728975,187.202712,26376.062287,8.457662,337.861922,488.976394,17.689785,77.131889,4.593787,1
7.810145,187.315048,20418.889926,7.214896,325.228881,351.186081,16.8004,68.48548,4.033774,0
5.735724,158.318741,25363.016594,7.728601,377.543291,568.304671,13.626624,75.952337,4.732954,0
6.969524,195.830329,21595.485045,7.291684,331.543486,427.808388,14.311442,65.590834,3.919678,0
7.085703,195.84282,22330.01198,7.161913,330.393683,428.878783,14.000524,65.439271,3.948173,1
7.087994,197.166049,21240.700461,7.047998,333.670958,428.211939,14.582997,65.632725,3.930225,0
5.74211,188.216604,26831.610411,6.202721,318.376676,498.142386,9.65736,53.508523,3.32307,0
7.205707,197.622541,22298.469163,7.065267,330.627085,423.427116,14.219189,66.877082,3.996714,1
7.089876,194.835934,22155.951224,7.124454,335.13051,418.051402,14.377289,66.930675,4.006986,1
7.375338,194.868083,28767.757423,5.074146,349.985243,495.037067,14.247682,77.094234,5.127395,0
6.98517,194.406561,21402.762391,7.201719,333.12536,427.305638,14.295244,65.973486,3.974551,1
5.924799,111.478582,15413.896148,6.90003,347.861837,277.588075,13.261143,74.193995,4.188928,1
7.274317,193.526129,22648.294812,7.228954,332.253585,426.333143,14.27059,67.279406,3.994589,1
7.080263,196.058627,22985.885244,7.324754,333.799734,421.113593,14.413157,66.802206,4.012218,1
7.561833,170.175157,23254.009619,7.583327,328.70263,397.587974,16.140317,66.746781,4.03215,0
7.011234,198.099449,21425.080481,7.107517,332.271941,424.299926,14.237537,66.552847,3.979079,0
7.132102,196.426649,22008.807814,7.075642,334.55836,421.265658,14.647712,66.379239,3.963928,0
6.261111,270.466171,8572.421509,9.922076,286.327562,490.942651,12.926435,22.219327,4.753019,0
6.958083,197.457102,21911.513996,7.129675,329.289475,428.640262,14.260169,65.986721,4.008379,0
7.043522,196.551102,21895.494724,7.117588,336.659804,431.828368,14.37464,66.549601,3.972006,0
7.088538,197.260443,21292.526786,7.168006,334.912503,419.067138,14.038354,66.484915,3.915022,0
7.075794,196.181023,21646.280144,7.199204,336.673787,434.375026,14.269646,66.410292,3.956123,0
7.060785,197.00328,22368.481753,7.249457,335.453536,433.779527,14.389587,66.641502,4.026317,0
7.012559,197.930378,21303.759982,7.200569,333.787685,429.779178,14.407046,66.110175,3.94755,0
7.256015,196.649823,44184.23046,5.265558,260.425605,324.250148,8.148929,69.375044,4.53496,1
7.145767,197.593119,21489.439833,7.086251,328.766866,423.880019,14.386399,66.824014,3.934443,0
7.075353,195.198877,20970.512299,6.966014,335.45229,427.833922,14.518366,66.198209,3.972249,0
5.949519,160.442631,16898.808297,6.045906,367.328542,451.012788,16.359951,62.368234,4.072198,0
6.934572,195.637544,22316.382275,7.221799,332.656488,421.014981,14.189338,66.968983,3.87595,0
7.274213,197.660949,27198.432591,7.79784,304.849979,300.01991,14.6116,66.608891,4.710256,1
7.098383,196.070344,22681.8694,7.221359,334.095291,429.18296,14.053406,66.565544,3.949425,1
7.153903,195.967392,22720.1931,7.168299,334.820342,426.313593,14.197443,67.949766,4.087603,1
7.057339,193.230705,22238.20869,7.305215,332.710386,425.420989,14.574236,67.30256,4.015854,1
7.030791,196.852805,22879.737002,7.254811,328.205094,433.695843,14.33879,68.207269,3.968276,1
7.065021,195.268699,22189.242401,7.284796,331.730095,414.41522,14.105624,66.812512,4.069829,1
5.489248,134.560276,15979.334793,9.504361,366.214428,418.642063,12.897635,57.780869,3.987012,0
7.15434,196.067096,22497.918109,7.064307,330.535783,424.583795,14.334121,66.970234,4.000965,1
7.067853,197.162996,21887.336486,6.955808,331.697148,422.860131,14.311971,65.625926,3.981053,0
7.042999,196.47582,22058.136828,7.243312,330.754775,429.063459,14.324827,66.828493,3.949591,1
7.19691,195.782398,22482.199416,7.135464,326.388195,420.647629,14.641518,67.604147,4.001661,1
6.963483,197.330167,21961.912139,7.180581,333.344355,418.838971,14.337468,65.378126,4.014038,1
7.013007,196.959439,21663.734936,7.102998,335.874385,426.773485,14.31124,67.206539,3.924628,0
7.234631,200.848676,23223.97029,7.102891,337.713452,428.02156,14.348924,67.643963,3.950927,1
7.116392,196.189057,22121.214967,7.144939,334.434739,425.178087,14.360637,66.286386,3.970113,0
7.114806,196.953563,21780.988385,7.019467,337.296195,433.669613,14.608893,66.644877,3.98201,0
7.010696,195.067386,21422.253024,7.07649,334.188728,427.564338,14.52055,66.745124,3.932035,0
7.277144,194.880861,18270.105061,6.121931,344.879754,402.664582,15.459752,76.987232,4.931354,0
7.070256,196.252393,22129.474158,7.223402,330.71722,421.206787,14.33237,67.137385,3.98404,1
7.141541,196.670372,21047.648359,7.048881,333.015754,425.286438,14.178071,67.485061,3.914824,0
7.080051,194.744069,21755.488872,6.989593,335.522264,428.51392,14.409075,67.252084,3.981333,0
7.14747,197.378829,21677.816206,7.125941,333.311775,423.293986,14.440163,67.048591,4.000028,1
7.074486,193.028237,21997.528263,7.083624,334.053622,431.512959,14.362042,67.062628,3.949903,0
7.211166,195.397445,21461.726335,7.098543,331.001403,424.508445,14.415824,65.948458,3.993693,0
7.052426,197.454157,21226.492353,7.09223,333.240424,429.47789,14.275882,66.49436,3.84697,0
7.348611,214.71589,32742.187333,6.351029,320.065106,438.044331,15.792574,55.366456,3.544537,0
8.247148,175.91183,9913.963346,4.974506,324.433308,302.200496,11.070511,71.438165,3.941969,0
7.067666,195.413702,21845.027132,7.119907,334.159309,423.163172,14.618339,66.376766,3.943165,0
7.094654,194.758545,21837.127383,7.057507,332.599122,424.302057,14.481482,66.597378,3.993234,0
6.971234,194.501063,21465.288513,7.049606,331.592944,423.79654,14.467142,65.669997,3.932311,0
7.169391,194.533256,22151.144321,7.235715,329.386981,429.634451,14.321987,66.584443,4.030563,1
7.130553,193.075248,22239.997783,7.344022,329.058255,428.540687,13.958087,66.306642,4.001975,1
7.11523,193.998122,22588.057909,7.168988,333.333773,421.7085,14.361073,67.022279,3.961005,1
6.98247,196.869332,22379.580234,7.150947,332.090356,427.126837,14.186013,65.168394,4.000532,1
7.081702,194.690464,21747.578795,7.243217,331.114961,418.025668,14.213977,66.545295,4.007116,1
7.170897,196.091953,22104.121393,7.256261,331.692688,423.417276,14.117191,67.321294,3.996832,1
7.081722,196.009133,21557.394869,7.186065,336.065908,422.192686,14.353103,65.649909,3.981302,1
7.115167,193.995009,21866.51596,7.243928,332.422615,423.329471,14.31606,65.102663,3.982312,1
7.152947,196.831439,22696.512968,7.136492,328.201325,430.093826,14.400709,68.651474,4.027809,1
7.156397,194.780892,22117.374357,7.219627,332.118505,425.583871,14.55513,64.845935,3.984461,1
7.194021,197.356418,21932.805838,7.105049,331.782285,433.110244,14.472345,66.563563,4.019308,0
7.057684,197.191747,22300.0545,7.03615,330.672366,424.736984,14.468881,67.01446,3.949381,1
7.166186,199.851184,21428.093058,7.102494,334.357733,433.454267,14.455573,68.029879,3.932346,0
7.142526,198.39905,22052.053952,7.090657,335.171337,429.158243,14.479518,67.614389,4.02198,1
7.085768,196.56093,21826.440221,7.059449,332.577284,429.505058,14.523939,66.168225,3.970185,0
6.2668,187.829617,27577.213623,9.141597,322.917848,277.050802,13.290252,59.454325,3.652845,1
7.093533,200.062577,22458.18549,7.165044,331.48719,426.052043,14.33523,66.837635,4.018235,1
8.65139,154.546949,15901.285161,6.51098,419.216305,444.843584,14.656725,49.515175,3.26641,0
6.892741,196.618643,21845.389679,7.092073,336.072278,423.290681,14.528338,64.597327,3.935723,0
7.116793,197.303508,23124.528553,7.134604,334.713493,422.669751,14.327569,68.424564,4.016646,1
7.114973,195.658616,22692.155699,7.190607,331.615156,423.68279,14.184973,65.948032,3.998023,1
7.065466,195.270129,22548.159371,7.177903,332.6756,429.479354,14.41291,65.657067,4.066066,1
8.163076,183.161853,20335.67651,6.028559,333.084455,475.296471,18.248098,49.604842,3.287244,0
6.992189,197.439646,21376.696718,7.092677,333.799615,427.776275,14.50538,66.059135,3.925268,0
7.109139,197.020378,21953.638319,7.280828,327.097398,427.928813,14.68524,67.13519,4.002514,1
7.814524,180.347308,17516.699362,7.489006,352.277029,370.011373,14.28932,80.882425,2.9017,0
7.104383,195.89534,22051.309385,7.168053,333.481459,430.476854,14.158982,67.48068,3.998562,1
7.119722,197.151593,22374.1306,7.197327,334.134927,424.767039,14.205234,66.010933,3.939164,1
7.178956,195.116754,22276.163286,7.154825,332.675906,424.659755,14.224701,66.50702,3.955703,1
6.946082,194.327727,21811.041428,6.932264,333.849225,425.812881,14.707217,66.74097,3.937433,0
7.121445,197.473416,22719.598115,7.199992,335.406098,433.318952,14.54726,68.015331,3.987563,1
7.198997,196.316758,22011.103438,7.050784,330.833684,425.608874,14.086477,65.987796,3.93659,1
7.193379,195.906622,22023.041169,7.167965,332.240654,427.686162,14.312858,65.743118,3.959438,1
6.470152,176.736376,30594.280675,4.393138,324.659233,524.909781,16.614248,84.299703,3.125391,0
2.690831,151.782906,30204.546735,6.053072,303.702409,377.198273,14.121049,45.602992,4.650034,0
7.115942,194.431243,21586.343329,7.107992,332.801629,436.558496,14.297107,65.619357,3.959906,0
7.180265,193.172639,22289.760991,7.189329,331.74202,421.035833,14.527781,66.521434,4.009419,1
7.121565,195.556971,22185.755369,7.108499,329.865769,422.168227,14.31007,66.720156,3.964205,1
6.956699,194.154538,22137.840931,7.061992,335.699517,423.455636,14.532508,66.746319,3.975064,1
7.198185,197.377792,22160.806825,7.284731,336.788452,435.274366,14.108843,67.609937,4.0499,1
7.085522,195.969468,22171.969437,7.155732,332.435214,431.641878,14.402852,66.442963,3.964281,1
7.170027,196.731705,22948.759607,7.041939,332.303339,425.797883,14.38872,67.267253,3.98827,1
7.160148,194.134357,21929.303832,7.181843,333.568047,429.225983,14.788078,66.270235,3.955234,0
7.131922,194.293158,22783.466135,7.116875,336.405812,430.8032,14.316171,65.825174,3.973303,1
7.099591,194.862869,22107.777048,7.048931,333.195876,430.646706,14.619735,66.109448,4.028319,1
7.025235,196.118632,21769.555167,7.1899,328.756069,426.840396,14.370953,67.18804,3.896541,1
6.990466,197.236211,22625.48168,7.231575,338.2413,425.46677,14.31315,67.306781,3.99891,1
7.078176,195.064749,21739.401719,7.083475,333.610464,424.000106,14.219283,66.075103,3.948462,0
7.199547,195.242509,23431.63597,7.067548,331.515369,424.708178,14.249558,66.321425,4.026437,1
7.099127,192.867141,21793.201788,7.161401,330.448029,424.315579,14.391936,67.476886,3.919742,1
7.165314,195.457392,22736.940677,6.966332,333.720753,427.600759,14.348836,67.425451,4.054084,1
7.058714,197.25651,22133.069159,7.327204,328.991139,422.766208,14.18645,66.953141,4.009756,1
7.146134,195.363006,22157.429134,7.414653,336.033225,427.034595,14.247647,66.868469,4.008585,1
7.189766,197.311816,21794.638081,7.011728,334.155807,421.950671,14.452428,68.723476,3.93383,0
7.077651,195.691389,21594.186181,7.142918,335.664108,428.451433,14.374369,65.204993,3.949612,0
7.121625,196.788053,21533.919143,7.20137,336.615216,429.746,14.331111,67.260135,4.045949,1
7.106716,197.023732,21363.841318,7.060532,334.75024,423.637472,14.427933,67.233526,4.004282,1
7.031909,194.321576,21573.36657,7.152848,332.08314,429.696209,14.39064,65.338563,3.952496,0
7.169508,193.192344,21349.706103,7.1143,332.875871,430.899509,14.720253,67.767354,3.995319,0
7.082869,196.598743,22025.875804,6.86364,331.005165,431.934549,14.606517,66.87087,4.03309,0
7.153101,195.389071,22194.917298,7.087782,333.863021,437.039987,14.370494,64.965663,3.981758,0
4.303575,227.007086,7323.302301,7.490508,326.695199,412.896404,12.90673,68.748918,2.010537,1
7.03741,194.722997,21885.249935,7.123979,331.623266,426.463904,14.156977,65.955219,3.899032,0
7.342231,198.168804,35273.976229,5.268807,300.405924,448.151669,12.388549,62.743383,4.261504,1
7.260317,196.886067,21715.996489,7.20791,334.30373,423.194114,14.70755,67.167205,3.930763,0
7.106654,195.678722,20959.466305,7.081973,331.793811,424.128109,14.527019,66.589672,4.002296,0
7.92797,224.721059,27402.019999,6.875299,343.286313,315.913411,14.13712,32.438526,4.847262,1
7.172385,195.904922,21967.752324,7.197758,334.265537,422.663812,14.140488,66.186787,3.969233,1
7.07969,194.493386,22434.092306,7.259369,335.255281,424.879022,14.198978,67.536281,4.039807,1
7.11649,194.056228,21858.577374,7.143171,333.213142,422.647756,14.028632,65.922281,4.011198,1
7.493291,216.38188,9465.323905,4.947531,341.460632,501.345347,11.247507,52.951363,3.748747,1
7.166984,193.09834,22361.101093,7.187649,331.731434,424.827207,14.415362,66.084962,3.960689,1
6.979329,196.528036,21967.102102,7.004379,331.005875,428.523659,14.388827,66.020904,3.972196,0
7.082542,196.693431,22071.97884,7.127406,334.074073,423.124955,14.341491,65.283806,3.930497,0
6.994053,192.831783,22663.438334,7.140931,331.629893,426.214513,14.397732,65.794854,3.977436,1
7.111608,193.617596,22097.876734,7.346607,330.560215,430.704001,14.563443,67.493608,3.987882,1
3.846454,211.757205,14686.28339,7.557873,326.912134,371.269374,21.76517,35.781529,3.143431,0
10.015189,210.126717,9064.035831,7.198432,363.56182,324.647909,10.213058,92.643892,3.846548,1
4.825591,234.783904,11142.392632,6.442769,370.416831,370.188948,13.046355,46.315992,3.463097,1
7.083046,194.884162,21343.717502,7.144687,334.910261,425.511118,14.471137,66.389615,3.976989,0
7.213912,196.945922,21530.543693,7.084888,331.721845,424.564337,14.344968,65.132217,3.955907,1
7.171893,199.001913,22752.183556,7.078333,333.674205,427.657879,14.555549,67.540053,4.035053,1
6.021266,236.975496,19894.147593,7.587909,286.938517,315.266811,12.1316,74.126663,4.028042,0
7.19129,195.957909,21782.964543,7.248926,333.068463,424.677062,14.428769,68.182448,3.993322,1
8.416087,208.326022,28234.906857,7.784123,297.330528,444.560108,12.645176,78.756533,4.930084,1
7.093994,196.912446,22145.152,7.247604,329.420112,426.260712,14.108881,66.57499,3.916396,1
7.053762,195.903562,22058.168354,7.172441,332.222282,434.90281,14.339222,65.290905,3.935974,0
7.223407,195.3318,22678.002895,7.171395,334.77333,421.478408,14.446377,67.123487,4.030623,1
6.905631,196.631727,21389.736725,7.029449,333.004194,420.164336,14.594049,66.74031,3.921147,0
7.009233,198.525553,21834.299099,7.081437,334.994839,422.11701,14.058851,66.552449,3.998503,1
7.077792,192.791102,22208.352113,7.156064,331.253815,426.656487,14.483236,66.967165,4.089475,1
7.119674,194.115244,22507.471123,7.155818,330.468807,425.193854,14.087058,67.159343,3.977537,1
7.121409,196.557458,22960.268139,7.152269,337.115077,426.537014,14.451449,66.548922,3.951014,1
6.632206,232.738545,9809.904,8.336778,302.325772,458.366785,13.304852,65.318835,3.443741,0
7.134781,194.250862,21951.517757,7.140349,331.623588,423.38073,14.153276,66.293121,4.045132,0
9.24142,127.918826,39566.754352,8.860818,281.99564,487.339169,9.534499,65.516668,4.718851,1
7.254695,195.304168,22121.775329,6.971527,339.710786,419.635632,14.402614,66.706118,3.990785,1
7.187632,196.462153,22988.496589,7.118224,333.473201,422.584483,14.727768,67.444156,4.004442,1
7.121925,194.155597,21871.245981,7.241897,337.738336,421.647868,14.154808,65.665372,3.889094,0
7.059285,196.471461,22223.188534,7.118902,333.473359,428.905397,14.561225,67.531874,4.007591,0
7.133266,195.531235,22470.215765,7.100678,334.148908,422.991717,14.167694,65.356686,3.980202,1
7.126043,196.651055,21339.789532,7.059802,332.315841,432.546077,14.251778,66.835402,3.89974,0
7.193395,194.685964,21357.901882,7.22314,330.718433,423.215922,14.337356,66.314791,4.058451,0
7.042913,196.788763,21400.953536,7.04788,332.596936,429.285585,14.572602,65.625683,3.939345,0
8.758825,197.21521,19572.14708,7.493433,376.838279,518.385546,19.185921,35.78601,3.527565,0
7.110588,195.032734,22125.77217,7.100229,334.301205,429.31372,14.160223,67.810507,4.018155,1
7.037079,199.72671,21503.065554,7.124912,331.596625,423.551866,14.153944,64.161794,3.900218,0
7.167236,195.500836,21455.008957,7.207384,332.419137,430.869137,14.709409,66.835787,3.919726,0
6.578998,198.409247,22389.380486,7.317575,369.097113,408.195015,6.059608,105.40046,3.690929,1
7.093348,197.152243,21314.344406,7.077776,335.68008,426.057549,14.120291,65.782087,3.95639,0
6.897799,197.642016,21438.211261,6.94099,330.950587,424.57504,14.12028,66.624283,4.060309,0
5.584124,203.756426,29999.987005,7.213329,310.660284,366.558131,14.183025,65.881271,3.852732,0
7.196795,196.426363,21722.280543,7.104116,336.444534,427.920564,14.440768,67.389856,3.933173,0
7.234714,198.422657,22310.238375,7.149901,333.860873,428.105703,14.242235,67.384817,3.999703,1
7.078703,196.289263,21899.009486,7.227976,331.821743,422.278606,14.416435,66.306449,4.008513,1
6.988745,196.404957,21140.664133,7.028448,331.14095,422.146958,14.387854,65.939977,3.969465,0
7.135377,196.681323,22040.960072,7.113498,335.52926,430.586659,14.502689,67.292312,3.935684,1
7.953878,178.06655,18677.279222,5.69954,368.21768,356.294341,18.638603,61.462807,2.860224,0
7.159053,161.47871,25591.840984,10.189528,367.596397,330.550453,15.447842,51.188317,4.291669,1
7.060727,197.008206,22279.275657,7.042608,336.911397,423.468389,14.46553,66.265051,4.018385,1
7.07503,196.283265,22664.222315,7.112607,331.274879,418.440341,14.0111,66.847153,3.929416,1
8.550875,231.248787,28918.419953,7.822528,369.264223,432.28527,16.266297,73.149464,3.772887,0
7.092345,195.718162,22235.691889,7.168977,334.457428,424.528714,14.555428,65.707141,3.933623,0
7.06891,197.059496,22707.250053,7.154906,334.508007,429.600043,14.260607,67.466502,3.969332,1
7.076385,198.644699,22309.328408,7.111408,333.830146,425.221605,14.457112,67.261928,4.010756,1
7.020279,197.336856,22293.219712,7.180892,328.53835,422.984057,14.267222,65.770474,3.994333,1
7.04141,194.657612,22462.582967,6.99494,332.513375,429.326462,14.558341,66.29871,3.933311,0
7.179411,197.652374,21791.135965,7.064382,334.209419,430.550076,14.459183,68.117762,3.961219,1
7.12846,192.827827,22271.686431,7.167917,333.282036,420.132796,14.306947,66.765052,4.06936,1
7.217049,197.23762,20991.960475,7.071989,331.799676,430.241671,14.607864,66.099978,4.001896,0
7.117678,193.946979,22580.364235,7.359799,334.241596,422.790664,14.391762,64.996135,4.035401,1
6.789821,197.300014,22527.681207,5.166942,399.981755,422.482029,15.916605,47.935105,4.512068,1
7.060947,195.366335,21530.402231,7.132446,330.336958,429.839604,14.616498,67.603544,4.000647,1
7.128892,197.567857,22509.161701,7.042611,331.207787,426.397979,14.460643,67.326474,3.982138,1
7.098642,196.588129,21467.019765,7.035359,332.379884,421.026785,14.41495,65.283652,3.909798,0
7.251605,196.927744,21520.520563,7.093639,333.417141,426.153342,14.635255,66.740112,3.970246,1
7.040953,197.712778,22215.968392,7.139184,334.050946,430.209812,14.441866,67.962086,3.943851,1
7.241306,196.677263,21962.935913,7.257551,328.303718,426.625042,14.284713,67.038752,3.986361,1
6.798106,197.279382,21867.204528,6.966802,333.338985,427.281173,14.403094,67.112415,3.944696,0
7.084622,194.285708,21971.839382,7.159769,330.493285,432.205837,14.155812,66.717448,3.980544,1
7.011256,197.414625,21778.458059,6.90761,332.113199,431.030393,14.458012,65.774158,3.9602,0
7.019153,195.152322,20779.08472,7.065452,335.955108,430.412777,14.453157,68.017037,3.926687,0
7.178299,198.411056,21262.039373,7.034169,333.892178,425.17961,14.371294,65.948667,3.987788,0
8.065339,174.120584,21366.283598,7.490944,315.180405,497.019234,11.417019,46.213198,3.756392,1
7.064662,195.25436,21751.640362,7.155809,333.606375,421.862462,14.518479,66.955209,3.979081,1
7.178684,197.805692,21665.66027,7.075047,333.309811,434.029286,14.363654,66.568609,4.041088,0
7.048579,197.708051,21725.93671,7.009133,332.64054,426.730875,14.403404,66.235738,3.93313,0
7.036079,199.10963,22067.90048,7.005733,331.899857,425.785209,14.141977,65.863077,4.008537,1
7.127513,195.648695,22685.212606,7.329342,329.267482,423.998276,14.37062,67.983014,3.984032,1
7.154267,196.857596,22347.160208,7.147434,331.37788,427.710424,14.225648,67.831472,4.011609,1
7.175544,196.457875,21969.353945,7.048155,334.216351,423.94043,14.493891,66.50965,3.913938,0
7.129293,195.818588,21268.360751,7.025212,335.286017,424.295108,14.127208,66.7781,3.988427,0
7.06367,193.506226,21586.728004,7.054174,337.460582,426.925798,14.545299,65.186394,4.016992,0
7.286943,197.645944,22470.136619,6.973199,332.775345,425.402645,14.250754,67.51064,4.036689,1
7.068542,196.145412,22505.15282,7.397474,333.296517,430.660128,14.142972,67.243878,4.034162,1
7.137532,192.326292,22679.606117,7.270085,327.231238,425.136685,14.601663,66.396373,4.057426,1
7.066667,196.672722,22145.154645,7.095654,334.974599,418.968725,14.210022,66.176637,3.999554,1
7.126194,197.953825,21943.715982,7.217569,336.153403,425.089881,14.185613,65.793694,4.011423,1
5.836105,277.065713,17711.487774,3.458192,400.167599,456.732862,17.552294,72.059866,3.738991,1
7.167675,197.042245,22150.00811,7.207885,333.697589,424.160078,14.329305,65.528222,3.973028,1
7.119176,196.03698,22297.395582,6.997806,336.239506,426.829955,14.063771,66.60456,3.937412,0
7.091795,193.817251,22451.250493,7.020841,331.790458,420.591159,14.280701,65.964106,3.970194,1
6.989833,195.151975,21967.821432,7.039229,333.1523,422.516332,14.564036,65.916123,4.028064,0
7.167245,193.041751,22607.525756,7.226483,334.67273,426.387602,14.352373,66.6466,4.063477,1
7.314655,195.648817,21161.907085,7.109766,334.718172,423.116842,14.345959,66.703605,3.987474,0
7.109598,196.857533,22202.274849,7.132555,331.137685,423.952156,14.333763,68.157116,4.030532,1
9.014357,225.367519,49009.924656,6.002653,296.630899,445.768812,16.254112,83.891129,4.549419,1
8.437876,183.106625,12856.928695,7.400019,361.779682,587.022609,15.926921,77.951262,3.815469,0
7.179967,196.726145,22244.293027,7.184871,330.887812,427.087733,14.256369,66.614793,3.948693,1
6.979109,198.845561,21324.75088,7.047137,333.154109,429.587017,14.464095,65.373135,3.928598,0
6.92732,193.757572,21826.772622,6.985642,333.949748,424.826567,14.452655,64.690463,3.971726,0
6.914868,206.249937,10343.378848,7.771206,324.38317,521.320673,16.17373,68.246945,2.988611,0
7.332974,196.722781,21463.832,7.187103,333.157721,415.741448,14.434989,67.938554,3.980968,1
7.050941,197.655469,22698.275988,7.000917,336.173419,426.991894,14.13514,65.498428,4.000119,0
7.1209,195.138283,22527.940263,7.122934,331.165915,423.372057,14.174204,67.200148,4.015574,1
9.961248,220.038186,11939.769859,8.428754,337.48361,398.680936,14.792585,60.991843,3.246583,1
6.057905,149.122794,23603.50187,6.537028,302.698631,393.293478,17.615229,54.217939,4.269753,0
7.073287,193.4789,22809.649162,7.1937,333.94637,423.380743,14.26751,67.067476,3.938383,1
6.970119,195.818726,21838.629022,7.111438,331.867455,421.674428,14.040505,66.172719,3.969795,0
7.109529,196.349654,23111.823071,7.203147,330.002444,421.137814,14.20846,67.929667,3.964636,1
7.0024,197.657772,22749.77091,7.24469,334.922407,430.828572,14.175055,67.077461,4.052029,1
7.08872,197.784977,21082.721097,7.192706,335.445967,422.364415,14.654423,65.395225,3.998606,0
7.061846,211.091687,11300.238109,8.866359,299.938071,353.510425,16.895754,67.577109,3.958249,1
7.102342,194.840133,22566.684587,7.003365,332.848761,421.897849,14.461014,66.31985,4.047809,1
7.068747,193.585014,22184.925988,7.032791,330.124825,423.339667,14.305703,66.835754,4.025727,1
7.099652,198.298791,21897.250623,7.083946,331.52834,429.17682,14.348709,66.664708,3.968058,1
7.191902,195.018011,21982.203451,7.335999,333.691258,426.176588,14.271192,66.616429,3.981931,1
2.803563,186.123924,11920.907422,8.642034,332.744519,447.594219,18.482185,87.697443,3.489939,0
7.22617,201.147654,22948.768083,7.193865,333.361818,430.269217,13.937419,67.533669,3.924688,1
7.029324,195.016507,22394.062099,7.024373,334.419023,425.610034,14.571611,65.98451,4.005923,1
8.550525,209.682466,22377.27295,2.654491,322.156037,413.673586,12.996761,42.989849,4.591997,0
7.258439,194.354139,21513.565373,7.176702,335.994451,427.029085,14.461119,66.199518,3.980677,0
6.894051,170.571298,17475.467754,5.194784,363.308755,641.586087,17.18318,40.916572,4.568843,0
4.581969,186.097915,33897.068202,6.358402,316.552791,406.382378,19.699848,62.323303,4.500208,0
7.127934,197.263123,21105.786794,7.181235,331.11526,423.649695,14.449216,66.225981,4.030155,0
10.301571,199.609364,11278.829678,7.464893,433.448168,461.979286,17.099096,63.190835,3.857852,0
7.059908,198.645001,21610.232913,7.112452,333.602806,431.272904,14.166041,66.220884,3.937259,0
7.170525,196.30964,21990.633393,7.194569,338.001987,425.766258,14.347501,65.764935,3.886262,0
7.047537,195.0755,22558.397334,7.145181,333.145681,429.776425,14.369747,68.242456,3.932297,1
7.077862,194.460893,22906.383163,7.190223,334.495116,423.013294,14.119688,66.077445,3.99843,1
7.140964,198.40801,21828.339754,7.046743,333.90593,425.034475,14.348706,66.07116,4.017487,0
7.207205,196.58363,21662.302519,7.115837,335.213225,427.668941,14.388686,66.498888,4.044755,1
7.026108,196.317368,21684.444749,7.128294,336.914869,428.423785,14.531514,66.53075,3.926941,0
7.1317,199.229918,22532.568622,7.022015,329.750766,425.803368,14.20831,65.803858,4.025195,1
7.09644,196.142705,22489.099547,7.234564,332.390911,420.258293,14.442268,67.205404,3.987775,1
6.972397,196.490888,21948.442563,7.077355,335.573837,426.275271,14.331981,67.80793,4.002455,1
5.429335,183.439383,15265.407564,5.714731,394.001195,446.879149,17.581557,50.266951,3.081736,1
7.02762,194.507741,21284.27015,7.078938,333.223342,428.273578,14.340227,67.495277,3.929635,0
6.354038,227.232895,16174.433739,7.567419,411.285251,355.527307,9.969701,82.492595,4.93524,1
6.87047,196.686619,21899.665067,7.15284,335.960841,419.166417,14.181971,65.458822,3.946343,0
7.065254,196.618878,22565.870417,7.198786,330.028851,418.621735,14.445842,66.340169,3.975954,1
6.912993,195.435457,21500.982365,7.083832,334.175587,415.721911,14.362845,66.307487,3.95799,0
7.110529,195.987826,22336.048733,7.195682,333.992156,425.749306,14.454858,65.846546,3.963035,1
7.105658,196.251308,21622.55354,7.083686,333.24689,424.307393,14.205666,65.504227,4.016954,0
7.100194,195.171886,22183.982924,7.086544,333.243993,427.881832,14.477479,65.895429,3.964815,0
7.03627,196.284648,22360.578975,7.042477,331.533513,427.629701,14.372203,67.982063,4.037301,1
6.339143,167.419711,16364.159409,8.095991,312.394079,372.511627,21.887088,91.066356,3.355765,1
7.117503,194.418978,21844.756955,7.037719,332.163924,422.106785,13.915705,66.174143,3.97168,1
7.243465,198.022404,22225.278684,7.050215,333.186452,419.303568,14.306124,66.785885,3.977151,1
7.081564,194.764086,21356.832801,7.104927,333.314587,427.857808,14.490698,65.605294,3.924083,0
7.160642,196.849887,21208.817754,7.148966,334.941267,423.349027,14.223749,64.978822,3.994079,0
3.719792,248.859267,23590.932129,7.683742,351.555482,427.495931,20.393782,38.604937,2.718398,0
7.132794,194.821543,21246.012946,7.059436,332.844418,424.142179,14.304455,66.000084,3.95436,0
7.165099,197.378824,22624.813561,7.252905,333.110658,424.706035,14.389412,66.640129,3.947307,1
7.019439,194.367896,21244.795427,6.981074,330.421145,423.220297,14.626004,65.78995,3.977682,0
7.024878,192.824641,21910.156419,7.228172,334.917217,428.853722,14.151509,67.572139,3.980253,1
7.127872,192.897046,21453.2367,7.106802,328.41142,415.630702,14.280233,68.092086,4.02749,1
7.236678,192.631859,22140.867829,7.139676,333.361158,424.327491,14.149178,67.207591,3.902464,0
7.07514,196.855576,22510.90389,7.292989,335.421659,423.495631,14.501036,66.947488,3.982295,1
6.999272,197.0058,21444.085164,7.199696,332.660168,430.896274,14.177055,65.660926,3.938473,0
7.206484,195.272908,22962.882553,7.339883,332.999749,425.806841,14.214935,66.079073,4.017695,1
7.436783,208.094004,28544.616287,6.500053,339.023898,522.79373,17.115276,65.311277,3.727664,0
7.201131,200.104076,22799.852278,7.034067,332.592923,432.739937,13.855859,66.2562,3.979627,1
6.988409,198.614541,21552.548642,7.155492,332.412818,429.212767,14.208472,66.255578,3.926808,0
6.96576,196.024564,21015.100001,7.121277,332.111804,424.677784,14.70347,65.937262,3.973117,0
7.155622,196.168649,22055.385954,7.17607,334.932198,424.527739,14.230181,67.222197,3.99336,1
7.085148,193.829856,21529.580851,7.197099,332.501778,423.803249,14.277343,68.583527,3.919238,1
7.169678,197.656839,21982.630555,7.252469,333.516168,422.803037,14.30308,66.75922,4.022583,1
7.048242,196.022135,22095.263563,7.184356,331.616699,417.118077,14.10562,66.446874,3.954648,1
7.097609,195.217548,22214.397853,7.292291,339.220956,423.803265,14.239409,66.628529,3.973301,1
7.17798,197.408266,21417.662144,7.208255,334.813658,433.11347,14.433005,67.427074,4.006613,1
7.234853,195.313858,22416.417565,7.062177,332.367678,425.454025,14.308184,66.252368,3.963473,1
6.724639,223.175415,41552.019664,7.7447,271.15712,463.885216,13.165035,61.058796,2.921415,0
7.084617,193.311911,22517.235694,7.091196,329.758528,428.714303,14.517653,65.884926,3.952464,1
7.010531,196.348785,21535.232597,7.151531,334.589831,431.302296,14.251844,66.714161,3.876152,0
6.681554,238.512441,26132.211812,6.304459,309.237009,326.026227,8.138227,46.08726,2.956748,0
7.114443,193.971632,22774.87458,7.154897,327.354403,427.827724,14.323255,66.107897,4.012185,1
7.130955,197.032453,21760.905052,7.13671,334.169154,429.342848,14.229176,65.742488,3.960028,1
7.025075,194.966158,22234.172109,7.233213,332.30726,427.393572,14.260516,66.279896,4.004513,1
7.042052,195.194651,21545.138542,7.131042,332.472132,425.517103,14.350115,66.686702,3.877785,0
7.140087,194.751782,21508.736184,7.053601,330.531536,424.45907,14.50494,65.279725,4.019115,0
6.071839,217.826531,17162.753927,3.521125,319.037346,612.094926,16.542239,64.826308,2.69161,1
7.144655,196.696003,22203.136393,7.0685,333.356456,429.491673,14.492996,65.756412,3.941129,1
7.039876,197.268451,23465.574675,7.112493,329.627441,428.525174,14.019269,65.669894,3.964542,1
7.181571,194.512347,22322.509218,7.261006,337.392569,426.344631,14.352928,65.994915,4.02877,1
7.182405,196.051751,22878.018872,7.29508,332.127302,422.370064,14.415521,66.593763,4.018509,1
6.949835,192.677159,21921.459407,7.107126,336.315213,431.715635,14.19836,66.372011,4.048551,0
7.027522,197.107994,22240.440595,7.015192,334.586998,432.125609,14.445576,66.144104,4.005708,0
7.773758,251.462844,21688.616943,6.19491,395.088245,355.831683,14.324552,67.584311,4.040974,1
6.927977,195.436036,21771.06305,7.081075,332.196955,433.265249,14.320346,66.833945,3.943659,0
9.504158,195.109243,19946.264665,7.467685,300.679528,382.473005,14.359365,78.306886,4.343041,0
6.940404,196.266429,21505.820777,7.010024,331.816252,425.721698,14.626512,66.705789,3.910744,0
7.089323,195.069012,22034.654398,7.285451,330.11716,425.365752,14.39444,66.942524,4.032002,1
7.028533,194.244966,21450.434985,7.153406,333.910345,423.064968,14.188165,66.084059,4.037003,1
7.257601,194.327389,21829.109159,7.096729,334.696476,429.47196,14.40206,67.026763,3.896426,0
7.160198,193.356155,22012.428791,7.233288,332.671523,420.791905,14.316069,68.017581,4.036775,1
7.256734,197.112377,22626.570291,7.167468,333.0434,424.12005,14.719075,65.351342,3.965792,1
7.203161,193.605102,22131.485547,6.99678,335.644863,432.149831,14.405423,67.325777,3.989812,1
9.831402,263.632722,13345.369098,6.566929,295.774218,462.439737,12.002323,76.021367,3.311808,0
7.0598,197.434204,22283.474996,7.236262,330.835961,423.388881,14.286425,67.499441,3.991922,1
6.961528,195.562192,21794.734034,7.146956,333.754908,423.846026,14.481301,65.429002,3.98694,0
7.222353,197.0084,22217.31678,7.192265,330.898632,419.948181,14.037003,67.908849,4.039652,1
7.011678,195.289144,22237.39523,7.223373,332.001801,417.82322,14.593476,65.693259,3.962979,1
7.044546,196.59017,23225.00557,7.204581,333.49188,423.095642,14.050535,66.53189,4.037006,1
7.072716,196.425589,22231.70624,7.137263,332.631027,426.370827,14.364152,67.191564,3.995629,0
7.067713,196.405129,21724.89557,7.116652,332.934981,433.402635,14.324526,66.03866,3.945379,0
5.296579,220.080832,39537.08646,9.232766,322.433592,393.388603,10.583336,58.801469,3.91847,0
7.207092,195.012069,22441.424862,7.247074,330.744703,426.330318,14.30361,66.937046,4.018844,1
5.412762,226.586488,45510.584319,7.070185,307.621462,420.124761,21.94019,58.851736,4.091206,0
6.947076,195.80982,21307.346189,7.080281,329.958434,419.686408,14.071774,65.267034,3.860716,0
7.194704,191.487589,21809.998907,7.212307,331.136033,431.737439,14.279578,67.543305,3.97587,1
6.054607,228.198027,10215.812417,5.983974,306.796862,441.4985,17.229149,65.340213,4.889163,0
5.319769,204.202072,22390.795566,8.053559,315.027505,399.119025,13.974085,83.157997,2.925732,0
7.011739,196.645684,22248.930084,7.220681,334.793645,421.234044,14.120876,67.24939,3.998174,1
6.90012,195.538291,21514.574349,7.190081,332.054804,429.166993,14.395786,67.03366,3.94477,0
6.995497,196.371724,21613.524949,7.023476,331.573098,428.13508,14.342437,65.841789,3.97691,0
5.195921,175.157155,33473.112518,8.40745,319.253631,484.27989,16.812767,94.356954,5.375902,0
7.132331,195.562993,21557.848991,7.020433,331.861068,422.843315,14.371824,66.290271,3.995232,0
7.031401,197.893112,22503.485042,7.189138,332.903903,431.530186,14.434171,66.255605,3.984053,1
5.303764,231.018784,6675.682245,6.100064,388.802045,465.830539,14.531245,77.66802,4.024521,1
7.139412,195.92149,21228.043241,7.099529,336.114508,429.701052,14.042587,66.932373,3.967406,0
6.981715,196.159648,21274.955885,7.10284,333.678927,428.115082,14.37756,66.487151,3.93327,0
7.083957,194.560947,22088.31616,7.29892,329.32319,425.264155,14.125427,67.225213,3.986005,1
7.116147,197.720931,21255.437038,7.214335,330.864917,425.590017,14.231595,65.423818,3.94401,0
7.058618,194.128361,22353.553094,7.117822,331.793157,426.137431,14.313321,65.875166,3.982567,1
7.027467,195.015408,21144.497773,7.076647,333.834944,423.424854,14.123667,66.961277,3.919703,0
7.033931,196.987406,23071.611942,7.064122,330.225303,422.391597,14.105936,66.28707,3.919561,1
7.158752,195.64296,23337.496461,7.143318,330.466976,427.98322,14.36824,66.209369,4.052354,1
6.958534,187.748849,13457.211129,7.363593,330.750392,350.603431,16.719156,77.671292,4.1946,0
7.016014,193.345542,21144.533536,7.071719,332.383955,428.116373,14.279639,67.018949,3.963523,0
7.133059,197.872585,22559.13898,7.198732,333.628095,422.362918,14.075597,66.623,3.934349,1
7.053559,196.839264,22111.093627,7.15346,333.673194,428.377742,14.495005,66.631527,3.934073,0
7.125371,198.746682,22482.040542,7.301911,328.971659,424.196986,14.25186,68.044663,3.980703,1
7.221609,196.219948,22257.452295,7.248984,329.361802,428.290436,14.26497,66.519896,3.917817,1
7.097501,197.618124,22302.630545,7.072687,331.70539,429.611232,14.492287,66.296561,3.992411,1
7.146139,196.228075,21722.139112,6.985668,331.743944,426.106911,14.375451,66.561875,3.941223,0
7.091898,195.840183,22046.28963,7.08321,332.216527,430.706914,14.445908,66.338599,3.883093,0
7.617524,179.596189,30308.231181,6.952617,329.422414,355.425532,13.40076,66.223591,3.698317,0
7.060648,196.594564,22703.540865,7.188568,328.360148,428.458323,14.329569,67.814924,3.93022,1
7.088678,196.541505,22317.651201,7.214333,335.020242,426.409589,14.480313,66.918847,3.997597,1
7.147453,198.3356,22346.771232,7.344224,333.059449,434.482797,14.526186,66.25653,4.027472,1
7.113817,196.497206,22117.281187,7.183223,333.487693,416.377513,14.410492,65.276178,3.949705,1
7.083388,194.438247,22332.385182,7.199099,335.005331,422.411664,14.307524,66.919657,4.038061,1
7.015143,193.913187,21893.455294,7.058023,333.742391,428.064589,14.49406,65.48696,3.968553,0
6.380717,266.01541,21250.935634,4.854335,357.241027,358.185473,27.006707,59.937785,4.53202,0
7.141802,195.153524,22048.188375,7.111654,329.228739,420.198366,14.381813,65.654076,4.000184,1
7.16675,199.738668,22264.583698,7.218253,329.77745,418.145289,14.458596,66.865141,4.002609,1
7.228499,195.369775,22351.2109,7.042598,329.792334,421.707354,14.3215,67.433039,3.962153,1
7.242528,199.964547,21919.874783,7.147737,332.708772,424.921558,14.373584,67.479164,4.006707,1
7.050046,199.075935,22120.020015,7.18448,331.002011,423.008758,14.340193,67.412894,4.078309,1
7.180884,196.994007,21282.389044,7.003311,333.484851,425.989254,14.436706,65.82645,3.94844,0
5.272156,181.732877,19015.468275,9.013016,446.724016,390.012003,11.103467,63.82601,4.063826,1
10.63291,198.378012,12958.748457,7.135497,322.623249,522.02787,16.722195,71.776018,3.722455,0
7.033473,196.632381,21711.837746,7.128558,327.779019,426.271528,14.592237,65.392454,3.994821,0
7.108213,196.51824,21726.007035,7.258378,331.208591,425.700402,14.193294,66.669012,4.035693,1
7.097409,194.596063,21373.021857,7.064566,335.688326,419.000347,14.224989,66.112306,4.041752,1
7.161522,193.88741,22064.200232,7.141895,334.814419,423.989661,14.626833,67.259191,4.02816,1
7.134066,195.086737,21868.417131,7.035448,331.763279,420.641396,14.513622,65.433121,3.974446,0
7.088948,197.574726,21610.071664,7.283772,330.262946,420.434532,14.168741,66.772078,3.928377,1
7.123724,193.023333,21454.937671,7.112157,339.602932,426.64653,14.437821,66.564414,3.947754,1
7.114694,194.999765,22582.238855,7.191553,333.570476,425.928393,14.333312,66.096595,3.943676,1
7.159598,195.271559,22420.545381,7.146346,332.018635,426.102237,14.43586,67.888659,3.993012,1
7.136326,198.422242,22490.482053,7.168113,332.957715,421.441629,13.77259,66.084244,3.920663,1
7.188448,199.703446,21984.601966,7.156217,331.671718,426.418237,14.300542,66.686235,3.97741,1
7.118505,195.722473,23431.373366,7.251518,335.658319,424.543241,14.320184,66.992402,3.99256,1
6.944868,198.476439,16904.201091,6.341407,299.521673,470.599761,15.045817,61.146087,4.241135,1
7.113861,196.13076,21279.229155,6.995324,336.766963,421.782727,14.790048,65.577762,3.954045,0
7.079632,195.831757,20961.598324,6.971532,331.545457,428.916245,14.541371,66.946253,3.898873,0
7.023663,197.541194,21917.32703,7.191995,332.739656,436.616488,14.602409,65.628367,3.94645,0
3.590822,213.702299,33431.671122,5.542364,308.380612,465.630119,18.126924,50.081054,4.144781,0
7.197766,195.96883,22570.363156,7.387181,330.062535,427.461636,14.391632,67.892549,4.027577,1
7.020627,195.79905,22929.121556,7.013603,333.247837,429.901348,14.549584,64.362551,3.994167,0
6.953407,195.188802,22005.876572,7.091805,337.546955,431.234247,14.260972,65.79417,3.95988,0
8.430472,195.717293,35254.026047,6.703539,314.727835,282.599918,12.269178,46.48795,3.25392,1
7.122952,197.341202,21471.505218,7.235255,334.246832,422.414752,14.446786,65.452738,3.960814,1
7.669013,205.595635,11579.441693,4.263279,356.136518,407.721613,10.829045,83.243808,4.589513,1
6.259652,208.37943,37356.746401,8.565487,256.473839,380.240193,5.567693,68.441865,4.213405,1
7.11466,197.531151,21665.188242,7.107654,334.421518,419.62386,14.443004,65.805968,4.015592,0
7.615557,204.869974,8403.284552,6.012316,418.309431,311.178955,12.742329,67.282328,4.243134,0
7.10143,196.824702,22019.770226,7.207139,336.080093,424.156228,13.966469,64.935858,3.930839,1
5.202672,195.329689,23051.441857,6.959567,245.728949,473.548484,11.659196,49.52233,3.927981,0
10.538098,200.139829,13867.244196,7.365015,409.44673,340.808823,17.073123,72.730639,3.823093,1
7.167271,194.719093,22051.854353,7.258766,333.666125,430.461202,14.332238,67.901664,4.073344,1
7.493844,197.331291,26678.392879,7.198435,269.892347,375.503062,13.134917,69.590806,3.819947,1
7.397651,260.083385,26730.635334,8.076995,361.113199,376.482171,17.847827,101.466825,3.078479,1
7.014634,197.046069,20856.594237,7.025145,330.821198,427.72015,14.284934,66.047602,3.920118,0
7.065438,193.867475,21936.96063,7.122884,333.831942,425.697379,14.33954,66.107131,4.002954,0
7.193163,198.685421,22044.561244,7.014944,331.858255,427.546821,14.592152,66.60106,3.972501,1
7.016213,192.076738,22344.412545,7.108252,328.704758,426.787444,14.223818,65.479767,3.978013,1
7.132063,194.892058,22618.104878,7.168955,331.310662,427.056782,14.348255,66.437763,4.046236,1
7.103068,196.402249,21583.167843,7.160143,335.660007,427.755205,14.561526,66.331647,3.89422,0
7.268702,195.568912,21482.881778,6.951801,334.999357,439.740136,14.434771,65.554283,3.982416,0
7.134763,195.43807,21956.195599,7.220827,335.518028,419.059634,14.177902,66.17427,4.021111,1
7.101702,196.56978,21886.80999,7.039022,330.003732,420.739982,14.364018,67.595535,4.027667,1
9.723377,190.897421,9076.646483,9.752088,357.384709,443.037417,13.307824,62.826687,4.072063,1
7.171082,197.097362,22831.212399,7.139651,332.782498,419.262392,14.492312,67.072262,3.942524,1
7.091084,195.257922,21911.191842,7.121764,335.422585,425.527483,14.339746,68.303432,4.034672,1
7.102243,195.51132,21728.358327,7.020674,332.285659,427.701567,14.361727,67.410991,3.987072,1
7.109166,196.443332,22031.438582,7.262201,330.449661,425.769514,14.057479,67.35598,4.036773,1
7.097313,197.778053,22659.414854,7.155633,336.822853,422.546225,14.56384,67.147765,3.956711,1
7.094326,195.078074,22064.506506,7.250725,332.478926,424.368005,14.213041,66.73989,3.919474,1
7.157133,195.97238,21291.582027,7.139104,334.186404,424.797932,14.607948,65.340457,3.90691,0
4.951414,153.21215,20117.359061,8.985572,391.069045,418.330195,11.831691,68.387613,3.870681,1
7.154736,198.147326,32680.977991,8.972661,283.108492,531.602634,19.806287,81.926826,4.629956,1
6.993181,198.438254,21334.933462,7.19469,332.098464,425.89695,14.352917,65.68669,3.872605,0
7.150618,195.222984,21644.238543,7.127321,336.081245,427.013134,14.496852,65.483937,3.979127,0
7.188396,192.879734,23035.31546,7.168179,331.243079,422.884085,14.356778,67.293125,3.999208,1
7.127624,196.974229,22908.599442,7.347135,328.927633,428.652441,14.105188,66.926573,3.921186,1
7.076032,195.493441,21962.435704,7.209391,330.759173,415.2323,14.024345,67.930931,3.949197,1
7.138128,196.857869,22404.074504,7.13747,334.128721,418.205113,14.157795,67.904556,4.014551,1
7.086567,198.323632,21730.935047,7.121749,330.897343,424.767805,14.138797,65.760823,3.963555,0
7.122722,196.549435,21127.786724,7.119921,332.190054,430.81429,14.251763,67.460058,3.92112,0
6.966559,195.569451,22312.056883,7.014453,334.20877,425.438868,14.306414,66.012971,3.951311,0
7.119853,197.091826,22893.508692,7.152715,332.320427,425.475451,14.257555,66.276408,4.029187,1
7.038112,193.826524,22158.129519,7.300289,336.265208,422.358957,14.555174,66.311546,3.955347,0
7.008913,195.781418,21167.646276,7.136775,332.535613,425.256575,14.353925,66.277426,3.937969,0
7.027377,195.679566,21722.234263,7.078268,333.556981,428.907693,14.279667,66.279272,4.027926,1
7.169415,194.33231,22728.400809,7.170854,330.036267,428.638004,14.105836,66.89712,3.985804,1
7.133376,194.282627,21561.662691,7.166976,333.112712,424.165671,14.595757,66.814011,3.976181,0
7.129775,193.882696,22243.905516,7.091056,335.824953,427.351871,14.300137,65.903591,3.930872,0
5.115817,191.952743,19620.545329,6.060713,323.836384,441.748379,10.966486,49.238231,3.902089,0
7.131163,193.160561,22587.12783,7.147848,334.017678,429.458532,14.442243,66.328319,4.019699,1
6.057068,184.373232,14807.26849,5.753405,384.821967,462.00617,14.753055,34.26586,4.371748,0
7.137667,194.676666,21398.061638,7.190468,336.802203,426.541545,14.393998,66.244152,3.924669,0
7.120999,196.004664,21040.270935,7.091435,333.042654,426.888976,14.465661,67.46601,3.984327,0
5.352566,150.495214,27795.732041,5.464058,445.938391,422.422509,16.14451,78.374845,4.779187,1
7.171983,196.890659,22600.363379,7.105008,333.258329,426.762748,14.458163,66.555605,4.005653,1
7.030736,195.711045,21952.852594,7.313653,333.82393,428.666832,14.584368,65.525157,3.986618,1
6.204429,211.640958,35439.68784,6.236836,314.131317,552.462792,8.660869,56.350096,4.106808,0
7.244672,195.273567,22394.453615,7.188447,335.760639,427.750113,14.308106,66.595207,3.964688,1
7.047899,196.503389,21102.469427,6.998672,332.623512,419.48494,14.796117,64.805112,3.949029,0
7.127728,193.434116,22496.145164,7.201274,331.349855,420.709597,14.363742,66.367782,4.027589,1
7.068444,197.228867,21093.243963,7.123728,333.812155,435.424069,14.336001,64.122834,3.973783,0
7.638762,178.271636,18308.502674,6.548098,362.332872,394.180985,11.291788,81.989156,4.496627,0
6.984322,197.432279,21397.307603,7.116775,333.908472,435.381148,14.296546,66.873136,3.914029,0
7.111963,198.293013,21568.295177,7.285656,333.736416,420.864336,14.32935,65.617301,4.012285,0
6.977268,223.278891,20287.35977,5.274745,282.085719,377.000392,14.046278,67.627241,2.367041,1
7.073253,197.848556,21890.045777,7.189105,329.643175,432.730178,13.933645,64.669807,4.012638,0
7.173513,196.551592,22143.842535,7.282538,330.602226,431.73156,14.369397,65.749095,3.947587,1
7.005,196.388445,21956.793787,7.152081,332.743982,428.54126,14.153055,65.737037,3.977645,0
8.846282,188.415001,17734.949625,6.057868,317.150545,419.395569,17.115447,60.251578,2.925038,0
7.161395,195.88253,22279.46069,7.282778,328.129372,426.988777,14.411253,66.97643,4.012226,1
6.040282,139.770872,20472.874588,6.810978,357.593277,488.27493,15.882252,53.279042,5.76158,0
7.050765,198.461913,22811.455462,7.275886,330.563079,428.390271,14.277397,66.907343,4.001694,1
7.10015,199.975157,22390.339542,7.040707,334.297384,427.77322,14.299337,66.91204,3.964871,0
7.044279,194.372135,21934.116749,7.176366,331.936062,426.966864,14.586651,66.420387,4.031401,0
7.180577,194.806002,22302.985007,7.180567,334.532984,426.355746,14.378629,66.631408,3.989385,1
8.733525,203.39613,24578.421221,6.594145,288.678463,336.824656,16.70192,68.793062,3.149202,1
7.261237,194.650831,22543.816857,7.265806,334.718384,421.256759,14.586512,67.369661,4.02983,1
5.726336,191.75229,35899.280309,8.066654,378.774605,307.987551,12.568721,60.192351,3.912289,0
7.089583,197.323875,23047.137805,7.20704,332.090357,422.342097,14.388222,66.178509,3.93881,1
7.176353,194.807932,22104.934034,7.179412,334.962842,416.784782,14.232585,66.583208,3.964173,1
7.08486,195.244999,21937.103223,7.152493,332.3929,431.376069,14.779703,65.862991,4.010258,0
6.992907,196.235313,20896.546357,7.24372,334.972851,420.462552,14.115343,66.041949,3.994493,0
5.848667,210.441205,33095.389597,6.095884,312.375786,482.451933,11.813338,61.935078,4.874534,0
7.048628,196.058655,22494.435949,7.169009,334.457212,428.819314,14.355496,67.097866,4.093494,1
7.041858,197.616922,21802.584503,7.154014,336.601605,424.207006,14.540657,65.964662,3.997951,0
7.175663,196.264652,22764.982786,7.206719,331.887672,422.317293,13.9306,66.017393,3.944405,1
6.467868,236.694648,7656.413248,9.840949,214.460834,356.347842,14.412734,54.641176,2.861064,0
7.186174,194.273745,22077.272376,7.095707,335.120447,422.924524,14.235814,65.419819,3.944889,0
7.037614,197.150912,21411.556508,7.052414,332.865099,424.699066,14.32867,66.014338,3.950508,0
5.345345,238.51023,10315.353973,7.822601,281.771707,496.350875,12.624613,87.342833,2.362886,0
7.119237,193.945948,22416.018051,7.187727,335.228461,426.599054,14.140179,66.633068,4.023937,1
7.022631,200.640768,20940.182508,7.137015,332.263371,431.816975,14.476467,65.820457,3.967007,0
7.059207,196.723656,20912.994009,7.147443,332.70284,426.765819,14.332943,69.481837,3.910063,0
8.031055,222.628424,18134.83502,8.754513,314.471566,452.970285,12.065963,78.549712,3.33888,0
5.91054,241.140746,25721.833866,4.806759,385.887468,462.61253,14.316821,60.590359,4.007508,1
7.070082,197.40002,22517.782917,7.182631,333.683591,423.50206,14.181756,66.104673,4.000889,1
7.095325,196.005179,21118.767416,7.089638,333.353789,422.188331,14.536823,66.77057,4.012714,0
7.123038,197.223746,21936.72251,7.241674,332.064388,427.333685,14.57509,65.394272,4.039274,1
7.039858,194.891003,22163.349415,7.224198,333.046427,429.385974,14.18124,66.097455,3.943271,0
7.008813,195.676715,22476.339031,7.013272,332.079728,427.986974,14.291585,67.854485,4.032725,1
7.102447,243.412941,23493.120864,4.792738,283.344321,341.438781,16.072774,45.633295,3.065508,0
6.622791,195.867117,13900.716523,6.363538,387.356938,310.851138,11.758374,52.406188,5.609291,1
8.567044,160.217867,23683.11019,4.28693,360.286282,490.512539,9.027167,67.476229,2.804927,0
7.191025,151.306674,23781.32874,9.214409,403.78843,465.126838,16.884214,77.515444,4.270646,0
4.574125,134.201289,22520.41864,8.191827,403.34239,372.200139,11.260914,69.047159,3.0865,1
6.384824,243.688075,39960.298951,6.697657,297.185549,437.727915,15.96749,54.930317,4.144999,0
7.001255,194.100962,21453.950082,7.035034,333.637527,423.439153,14.302011,66.290224,3.977652,0
7.121758,193.989701,22865.397407,7.148639,334.746665,427.637339,14.274894,66.78396,3.944862,1
7.087054,195.718962,21630.520473,7.137239,336.134089,429.232432,14.632096,66.023475,3.922462,0
7.091363,195.589698,21717.352201,7.14731,332.527708,424.990931,14.158263,66.68038,3.994896,0
7.294963,196.98152,21733.56405,6.964115,331.381582,427.359293,14.440954,65.425371,3.971777,0
6.850302,167.98504,40588.433831,3.372369,265.431121,300.411744,16.005207,72.363217,3.080297,1
7.077488,196.606857,21795.129416,7.161673,335.529189,428.229917,14.529202,67.022908,3.92583,0
7.108496,197.320061,22817.339362,6.99147,335.696905,428.447088,14.419038,66.520536,3.935282,1
6.886027,198.615981,21736.661237,7.100887,338.377564,426.338104,14.496711,66.232523,3.93881,0
6.047381,230.586285,20278.382985,9.360799,305.776583,333.530768,12.593848,55.301836,2.21673,0
8.50922,200.304348,10587.304929,6.392545,307.39896,585.222628,11.798991,63.827569,2.519892,0
7.113,195.995922,22530.274989,7.17165,333.624488,425.400124,14.55875,66.54882,4.004602,1
7.145747,193.924422,22397.079238,7.116981,332.389456,425.287148,14.534613,66.136591,3.995508,1
7.057971,194.312287,22843.31702,7.152541,330.58593,421.462033,14.405396,67.117032,3.895988,1
8.185923,240.979104,23641.472028,6.611449,318.68901,410.158222,13.109911,56.913981,3.566945,1
7.018289,199.625273,21549.800371,7.058411,332.285059,429.389506,14.423646,65.816653,3.953793,0
7.041665,178.285749,25419.769498,6.772751,316.433854,388.339277,11.557097,73.25622,3.099746,1
4.96407,168.283365,17694.574833,9.725321,333.639511,353.069939,17.293732,67.252514,4.761701,0
7.155482,198.212676,22298.363609,7.159019,332.667825,421.922174,14.416595,65.460498,3.944419,1
7.071675,199.356101,21345.572328,7.042236,330.97658,427.660405,14.417979,67.246104,3.996242,0
7.945407,211.800085,15938.286439,6.636454,385.65273,392.166088,9.619021,40.233823,5.428917,0
7.083328,194.847537,22079.963639,7.116006,327.421813,424.404947,14.463959,67.869251,3.940321,1
7.152208,196.984245,22356.085585,7.219524,329.698881,429.075495,14.420385,67.194178,3.947916,1
5.368988,250.660916,15973.686891,6.416298,277.151938,334.819954,15.684362,44.040382,3.737883,0
7.08388,196.984868,22534.914408,7.191498,329.885221,424.105298,14.145092,67.116475,3.995967,1
5.588537,171.333123,17732.240668,5.588614,343.041575,466.445429,13.827755,59.376451,4.373999,0
7.050486,193.611635,22762.527992,7.138474,332.757205,423.802621,14.463011,65.935328,3.959378,1
7.314773,196.362824,22473.963081,7.262332,332.68834,417.003453,14.409779,67.555048,4.002231,1
7.157373,195.054508,21248.852168,7.154422,336.435971,423.219776,14.12875,65.561381,3.984338,0
7.091673,198.104291,22142.868129,7.190059,333.833871,429.675658,14.418458,67.277573,4.051852,1
6.94379,194.708525,21780.558186,6.979357,332.30823,424.184846,14.415083,66.583507,3.975233,0
7.246005,197.771727,22163.351844,7.054403,333.876125,424.18018,14.155573,66.82935,4.014158,1
7.119812,195.813498,22080.320938,7.115456,334.341361,425.460412,14.474818,65.18597,3.999959,0
4.483403,172.383878,13122.223422,5.276731,291.199088,413.545047,11.871725,75.504542,2.203841,0
10.049674,132.832837,11557.032038,8.550573,323.508072,442.76805,13.376149,92.17617,5.133478,1
7.203367,198.621133,21532.823596,6.982005,334.864641,431.290198,14.310444,66.439327,4.023069,0
7.065158,196.14064,22953.548475,7.171699,338.535183,424.798342,14.313354,65.77213,3.969643,1
7.080211,194.569016,21691.349081,7.021973,333.82294,428.778083,14.407289,64.337783,3.973715,0
7.229063,196.402772,21389.888021,7.135638,331.736306,425.232496,14.139776,66.47167,3.93895,0
7.078423,197.0433,22698.204543,7.204703,332.797206,428.380337,14.430714,66.716193,4.061969,1
7.151709,198.256379,23010.841857,7.309049,332.268144,422.366714,14.34543,65.599904,4.024973,1
7.092753,193.476695,22115.05204,7.083098,332.310877,423.545546,14.405609,65.684772,4.004505,1
7.045626,196.800354,21974.223583,7.277871,336.470467,425.950824,14.468686,66.731664,3.955503,1
7.031267,196.645139,21191.966009,7.15788,335.013462,420.448418,14.312849,66.439777,3.94585,0
7.12226,194.194358,21361.659539,7.284412,333.059668,429.565758,14.142199,65.547902,3.910252,0
9.794559,129.870958,20682.731742,9.390843,291.980083,427.123948,11.853228,78.711469,2.945419,1
7.115653,198.526369,23004.898748,7.271192,329.639933,430.539019,14.252252,67.627313,3.966222,1
7.119575,197.62285,22647.293519,7.268465,331.534809,421.480216,14.348882,65.896986,3.968084,1
8.165715,203.419331,16925.012297,5.574342,337.252325,527.912544,18.361436,60.393548,3.920116,1
7.090201,193.136493,22246.890957,7.186076,332.395954,423.114803,14.339211,66.568646,4.008152,1
7.244668,195.682811,22999.921696,7.246735,327.288702,428.10557,14.263708,66.866763,3.934129,1
7.104986,197.383102,23480.78433,7.254725,330.387305,421.305131,14.280814,66.943782,4.021624,1
7.052052,194.427424,22092.830121,7.124858,328.260708,418.41927,14.19817,67.059218,3.987923,1
6.353437,218.549363,18664.844297,6.690394,312.393019,503.414897,15.422459,94.386932,3.861109,1
5.345887,184.784575,22274.368372,9.727103,319.030495,492.135489,11.894673,87.297686,2.950361,0
7.119429,196.034872,21442.065847,7.175974,335.059853,427.082482,14.274196,67.702847,3.919337,0
5.669699,199.662637,9544.862671,8.808247,343.485533,378.120393,21.780373,80.488274,1.910117,0
7.226891,197.086901,22740.841786,7.14437,333.327053,421.716166,14.366207,65.499737,3.998804,1
7.199395,195.232224,21655.577321,7.023603,335.585697,422.055634,14.277692,64.280539,3.93804,0
7.070727,194.640089,22263.446749,7.02924,336.311013,430.856295,14.411974,66.387706,3.984916,0
6.962746,195.065956,21998.896966,7.106575,332.675125,425.471414,14.532916,66.728549,3.917905,0
7.171668,196.234568,22316.784968,7.439518,333.567798,417.415697,14.15733,68.093865,3.982903,1
7.808012,179.799917,17037.725367,6.378364,348.071511,590.060546,12.092499,81.592362,4.16555,1
7.120743,194.373022,22475.191887,7.145869,332.573055,422.256956,14.43436,66.225311,3.971708,1
7.024947,194.687258,22207.891379,7.00071,330.985049,430.23047,14.252628,65.203013,3.920069,0
7.918183,224.152005,20012.172976,9.008726,302.393605,421.890083,22.187849,72.727868,4.764194,0
7.057695,197.821473,22167.372125,7.053594,335.338747,418.663958,14.077557,66.532318,3.96093,0
7.116479,196.822626,21597.327224,7.062427,330.650302,431.619367,14.365982,67.590274,3.944587,0
7.081563,196.33591,21179.457045,7.107323,335.918324,429.91858,14.028234,66.792863,3.934993,0
7.078036,193.700706,22616.625967,7.130582,332.935326,425.060606,14.310828,67.207721,3.935014,1
7.197188,198.135991,22703.44814,7.298804,330.225441,420.578729,14.488416,66.384071,4.000034,1
7.076601,199.219753,21509.985446,7.180084,334.980761,425.606342,14.321218,66.034274,3.945906,0
6.630252,160.920384,22557.779576,5.305394,338.630828,416.898071,15.793101,53.276033,5.181202,1
7.184251,194.768169,22005.020479,7.049962,335.395468,425.33128,13.976899,66.195603,3.945134,0
7.014458,194.821953,22429.820212,7.146756,334.188814,426.395189,14.535854,65.988069,3.94786,1
7.196981,195.705562,21914.071515,7.268036,330.891426,420.333899,14.407519,67.165227,4.064502,1
7.047821,195.529844,22811.020029,7.076109,333.078539,422.769594,14.397953,67.681174,3.994991,1
9.076318,215.912723,14153.643378,5.020027,333.499203,311.797042,10.776321,69.114593,3.436986,0
6.989375,193.617575,21202.53681,7.08371,332.425996,421.101573,14.489236,67.813362,4.025364,0
6.063355,160.767311,14775.145596,7.484104,305.828553,327.270239,12.309016,69.038454,3.467337,0
6.980784,196.96262,21338.488334,7.13635,331.042602,429.814096,14.267398,68.011308,3.968694,0
8.12771,203.070309,13227.052382,6.310902,362.275707,409.742224,18.277277,78.929579,4.244173,0
7.050415,194.497904,22901.966185,7.152035,332.460898,428.597451,14.408294,67.031895,3.963957,1
7.040265,196.206648,21435.664112,7.046967,331.801079,431.599842,14.434301,66.8537,3.87887,0
7.027186,185.320701,30988.973019,8.600477,327.46267,326.26908,9.98201,52.716589,5.353043,0
6.873676,198.67199,20997.294343,7.081107,335.48113,426.055251,14.317034,65.683781,3.902444,0
7.152568,197.0524,21755.624372,7.119363,333.534439,424.912492,14.247909,66.276692,4.003861,1
7.090765,195.719539,21755.833243,7.098781,334.790878,424.792101,14.674839,65.646978,3.959141,0
8.029182,158.040398,19663.469428,8.433448,283.270495,431.304716,20.696198,59.972929,4.388551,1
7.151983,196.337156,21864.089027,6.967843,334.050837,428.341182,14.415672,67.14872,3.998682,0
7.110622,195.302524,21482.607,7.165974,333.096108,422.79178,13.964641,66.163435,3.950556,0
7.19286,193.140069,21379.852285,6.950612,331.314302,429.640456,14.244064,66.404276,3.960677,0
7.18024,196.131695,21213.243939,7.113896,336.187495,431.118832,14.48378,65.658414,3.997999,0
7.007207,196.217763,21443.10926,7.072851,333.668408,430.240245,14.593284,64.939055,3.977983,0
7.275909,175.220376,22644.766348,7.886855,293.309854,373.345693,17.411683,56.799287,5.062298,1
7.091815,197.332013,22140.697681,7.020937,333.293587,424.810201,14.17054,66.663799,3.973431,1
5.122648,195.018888,17279.513749,7.027441,336.466042,446.712219,4.861631,72.83754,3.504525,0
7.134385,192.417255,21912.555126,6.855179,334.347097,430.685206,14.332878,67.348923,3.928834,0
6.969591,195.58484,21757.75899,7.121012,333.430392,426.900918,13.927156,66.153519,4.012965,0
7.080193,185.825726,39431.112653,8.806393,286.223876,355.937596,7.781493,39.623835,1.492207,1
7.200522,197.308659,22363.587066,7.36617,332.316509,426.762024,14.324084,66.390634,3.882074,1
7.042617,194.229264,22748.803035,7.115097,331.028607,422.945237,14.458514,66.287549,3.977565,1
7.21082,194.642189,21722.590847,7.007082,329.413254,428.082882,14.076249,65.852225,3.982011,0
7.053839,193.690551,22132.629642,7.116613,332.19999,432.220908,14.083345,66.73217,3.999887,1
7.127756,194.978859,22068.15986,7.147889,332.587153,428.12761,14.236767,66.719671,4.008672,1
7.129379,196.072454,23129.484895,7.199701,329.138672,423.164831,14.49594,66.336853,4.044771,1
7.012625,194.444653,21483.143779,6.986495,334.247662,430.585416,14.474196,66.139509,3.917009,0
7.217199,192.129023,21629.383239,7.035678,333.180355,427.081967,14.543816,66.795901,3.955069,0
7.046884,197.689957,21790.506459,7.231797,330.734896,418.601424,14.601911,66.585188,3.960157,0
6.983598,195.625996,21375.707201,7.138282,332.944285,432.629608,14.272672,67.272376,3.886982,0
7.127021,196.567063,21927.102894,7.302309,332.818042,427.890573,14.39193,67.55806,3.984612,1
6.946718,214.170043,32946.567518,5.484258,333.43957,318.883636,12.809956,15.684877,4.934986,0
6.935578,195.197763,21505.890602,7.052574,334.095023,422.000299,14.00994,65.77159,3.96015,0
7.132045,195.545153,22810.584044,7.19277,334.49782,424.21533,14.566175,66.289729,4.027284,1
7.049106,195.549414,22025.907002,7.1254,335.546494,429.466785,14.277173,66.495304,3.902747,0
7.214954,195.859689,22683.184929,7.233509,334.506294,415.257305,14.23731,68.791435,4.033694,1
7.177344,196.513938,20588.537642,6.990043,332.269971,424.710668,14.363615,66.615054,4.0041,0
7.092931,198.406734,22114.484044,7.137797,330.046279,428.199491,14.233142,65.855181,4.047543,1
7.099132,197.860173,21601.988585,7.030488,334.481095,427.324695,14.577728,67.513448,3.966212,0
7.069339,193.708643,22398.99946,7.240561,329.926658,424.150224,14.431148,67.686384,4.032673,1
5.344117,198.379144,13492.840835,6.559265,328.648845,591.363369,14.084388,61.392983,4.104699,1
7.214388,197.04469,22562.190502,7.093908,334.438427,425.759874,14.29879,67.584466,3.963182,1
6.321259,207.25771,8532.139517,5.987877,286.48928,491.765313,10.546886,74.502808,4.501457,0
7.154342,196.021679,21724.341434,7.028873,332.768464,428.159982,14.314482,68.044877,3.938515,1
7.11914,194.852589,23358.516488,7.17051,333.309734,426.147233,14.1882,67.095896,4.009982,1
6.528479,176.939676,18533.337828,6.083268,336.296413,491.477924,13.531264,96.944104,4.063276,0
7.049707,197.526667,21547.212579,7.075175,332.593269,427.340139,14.38149,65.772601,4.00252,0
7.073081,195.786434,21785.758694,7.084475,331.748554,424.864407,14.223495,65.54022,3.889078,0
6.189699,224.432949,15229.702869,5.879184,366.501118,649.805765,10.257515,71.780949,3.027371,1
5.392058,198.017165,19900.407838,7.843226,348.951924,419.813956,14.616509,80.568252,2.978925,0
7.048387,194.516992,22103.032713,7.034304,338.22142,432.556343,14.578171,65.610507,3.962166,0
7.008372,193.020163,21966.486671,7.102268,336.640004,427.288032,14.2629,65.011815,3.945105,0
1.757037,147.581831,41538.24273,7.728177,376.012933,428.444823,10.828696,65.00584,2.967554,1
7.001512,193.485306,21356.36519,7.077833,331.315834,431.350728,14.27592,66.807173,3.948307,0
7.289711,200.154455,22989.228317,7.426206,328.073972,421.478607,14.145187,68.306776,4.054436,1
7.085338,195.545231,21801.371593,6.972872,332.103327,426.709407,14.586071,65.48741,3.936749,0
4.965774,220.848639,21802.744898,6.250578,311.598136,386.413332,18.035238,53.908177,3.421767,0
7.062455,196.677884,22517.581021,7.106068,333.900019,431.921018,14.714701,66.172495,3.943235,0
4.161112,181.736389,25815.389207,8.534629,297.239219,399.292171,9.343334,46.638081,4.168242,0
7.075214,198.100083,21600.856799,7.16604,336.505719,415.788093,14.552153,67.017163,3.928699,0
7.121854,195.42151,22029.087257,6.992372,333.22871,435.516156,14.529206,66.955693,4.004845,0
7.107692,195.22266,20479.542075,7.203554,331.953983,434.245749,14.55618,65.472184,3.963064,0
7.136375,198.654493,22856.981938,7.143986,332.701682,422.563558,14.387942,66.852509,3.921981,1
7.08007,197.503476,22207.372785,7.141577,332.169296,421.677228,14.140246,66.561854,3.965714,0
7.13675,197.037411,22445.442696,7.239548,331.689444,418.372976,14.443463,66.212914,3.969567,1
6.99232,194.797164,20425.99112,7.05892,335.381647,431.846726,14.582321,66.124136,3.929263,0
7.178394,194.862109,20958.895951,7.017698,333.322051,430.698598,14.095012,66.385591,3.886666,0
7.371085,207.716824,24913.837166,9.61633,362.30018,363.168538,11.542662,67.720704,4.41259,0
7.075474,196.315835,22328.370206,7.19913,333.345356,426.141281,14.180061,67.588242,3.974136,1
6.964695,193.157256,21749.025635,7.003417,331.510673,426.028279,14.3398,65.343537,3.970077,0
7.041927,196.92078,21372.093891,7.083272,335.155058,426.856281,14.319478,67.356674,3.993117,0
6.97192,197.401116,20909.04534,7.106515,336.731952,428.653715,14.510777,67.279091,3.894629,0
7.147707,196.700985,21526.635641,7.075626,335.193278,431.026935,14.372053,66.052416,3.947782,0
7.163065,195.887216,21338.604188,6.942708,334.307372,426.592527,14.228337,67.153839,3.932563,0
5.343075,211.662091,45166.912141,6.651801,279.7675,485.959717,19.682337,70.546862,4.240032,0
7.187221,193.831308,22543.672545,7.102549,334.944489,420.209481,14.392436,67.355077,4.031042,1
6.195087,195.44316,19331.194042,9.112558,342.871807,425.502874,17.212455,85.114196,4.196558,1
7.049503,196.279244,22469.57246,7.209522,334.893224,428.645994,14.394932,65.35702,3.922102,0
7.101381,196.291621,21177.803182,7.127441,333.229483,430.007909,14.416944,65.996539,3.93388,0
7.140585,198.193564,21512.321767,7.066267,335.289251,431.866406,14.594342,66.448639,4.005681,0
7.120219,195.868316,22244.910759,7.204275,331.060782,430.078986,14.604412,67.530724,3.998416,1
7.044367,198.520007,21648.378849,7.047306,331.68036,429.611342,14.476945,65.29284,3.95857,0
9.228484,200.71033,26744.231526,6.83336,339.820719,363.950991,14.144772,86.9502,4.829754,0
6.943682,195.599128,21865.286344,7.118139,330.955705,419.750969,14.315444,65.313169,4.03143,0
7.199384,197.583394,22057.699089,7.221699,334.441362,422.533143,14.14845,65.427927,4.00728,1
8.040188,201.809216,11861.550852,7.20031,300.398435,420.549219,7.168607,90.761776,3.221139,0
7.084691,196.793291,21859.53412,7.269885,335.524159,419.263519,13.945752,65.638674,3.930315,1
7.047581,195.580628,22008.362236,7.14193,333.539819,432.511486,14.573837,66.292201,3.904936,0
7.17121,195.714409,21271.476801,7.004124,335.156511,429.131224,14.272807,65.3683,3.907033,0
8.277058,242.559246,12715.81428,5.128733,371.302747,561.761156,15.220021,61.799014,3.751324,1
6.908065,195.675695,21956.572947,7.081974,333.965371,426.315559,14.545574,64.839497,3.966775,0
7.068193,196.494281,21365.111449,7.158378,333.168098,419.995627,14.265909,66.430986,3.972009,0
7.174999,198.591018,21315.705057,7.168018,332.443463,421.833728,14.808612,65.886353,3.943575,0
7.14322,196.823598,22211.711797,7.047919,335.155319,424.206746,14.54926,66.535762,4.014452,0
7.209806,196.838155,22405.485221,7.120476,335.147014,426.514301,14.043123,67.329076,3.957662,1
6.980948,195.085585,21121.777625,7.16291,332.527685,430.094525,14.364625,66.14261,3.921257,0
7.217148,195.663927,21421.797077,7.083494,332.226606,425.69165,14.595988,67.136391,3.921575,0
6.909413,196.579939,21510.306144,7.056659,330.906693,425.76734,14.191429,65.543482,3.934143,0
7.166137,195.167876,21516.341881,6.936112,333.102407,427.469252,14.04126,65.671748,3.920252,0
6.652488,145.010172,19871.788448,4.961066,288.052192,545.974994,10.942024,71.727414,3.74209,0
7.103458,195.588537,22858.796728,7.133612,335.882309,417.01615,14.403258,68.302041,3.998823,1
9.597192,167.088976,21153.322827,7.944469,346.075016,335.197608,14.347676,50.642447,5.145153,1
7.140389,198.511944,21894.537249,7.114443,339.027809,425.588554,14.29822,66.910193,4.012503,1
7.119348,196.067179,21494.298827,7.106433,332.715718,425.262562,14.29585,66.619516,3.98481,0
6.988918,197.882262,22689.767032,7.226722,332.895997,426.694827,14.186373,64.871787,3.963121,1
7.090943,193.280953,22083.902457,7.055631,331.490548,432.812266,14.264574,67.037894,3.931044,1
8.433291,161.195283,15904.243359,8.423766,300.119,479.995905,15.303755,71.478501,3.631543,1
5.057736,137.689344,11229.137777,6.41141,481.030642,580.095225,15.390304,43.882514,3.163936,1
6.499068,173.768874,23734.846211,9.009056,330.164682,593.561756,13.986294,63.693876,4.35588,0
8.697122,166.452774,27752.00024,5.350924,372.264099,393.555796,13.748668,75.024545,4.180568,0
7.009955,196.569481,21416.33983,7.060841,334.736147,419.273573,14.581367,67.169911,3.89293,0
6.898932,209.636422,15422.220893,6.884918,293.56202,396.811214,15.671717,66.597336,3.688456,0
7.166432,195.349851,23389.903196,7.177387,336.354586,422.546897,13.994992,67.575124,3.96299,1
6.817649,195.57345,21586.649353,7.10041,337.722048,424.935163,14.051551,65.800141,4.003499,0
7.172783,197.635965,22449.071736,7.28074,331.260032,422.977461,14.348153,66.071705,3.984589,1
7.173863,195.896788,21896.050339,7.353338,333.896945,421.319834,14.579045,66.972006,4.040342,1
7.045713,195.361148,22617.848494,7.030111,331.113955,425.926314,14.426859,66.966192,3.968542,1
7.110587,196.911459,21737.52004,7.188509,332.533121,426.173595,14.381545,66.857584,3.885509,0
7.075812,195.95826,23279.496123,7.057612,335.289345,428.542493,14.269313,67.351826,4.002089,1
3.633163,179.350577,28584.17581,5.246382,292.440536,500.866018,8.956401,77.360985,3.349572,1
7.05046,195.601349,21581.528217,6.999361,331.892114,434.570709,14.374035,67.993558,3.921615,0
6.266378,163.385405,28141.216497,8.508751,376.870555,295.675137,9.938445,50.159734,2.936611,1
7.123817,198.779606,22416.730529,7.171742,332.252515,421.926601,14.096912,67.022008,4.062584,1
7.12793,195.965446,22465.048912,7.139363,334.622442,427.048255,14.252869,66.28528,3.989951,1
8.423084,153.032892,15924.799687,11.101628,329.132239,431.167468,12.321633,52.63131,3.958609,1
7.109455,197.874015,21642.818403,7.087243,333.707169,431.339941,14.305845,66.376777,3.938344,0
7.127379,195.141009,22521.623363,7.276804,335.10599,423.029326,14.754808,67.658697,3.914839,1
5.097786,182.819015,23590.313712,9.128798,326.334863,445.562644,15.137781,68.608103,4.829323,0
7.200273,194.607259,21348.055288,7.183053,333.567988,429.008461,14.438736,64.24385,3.950945,0
5.487876,179.206983,20162.018618,5.21143,305.264142,510.609385,12.588475,58.861558,4.223576,0
7.260896,195.436682,22724.890165,7.039191,334.967346,421.360857,14.446125,66.5864,3.974564,1
7.70811,188.99785,15456.220086,5.047916,322.754599,523.052663,16.090193,57.285763,4.896626,1
6.977082,194.831822,21836.718621,7.109602,329.410413,430.164973,14.152791,65.767822,3.980796,0
7.020662,196.395354,21768.286346,7.076607,332.485437,436.70309,14.594217,67.005469,3.945784,0
7.08497,194.962316,22398.411978,7.190082,332.094052,426.812723,14.105425,66.655935,4.063205,1
7.065254,196.391993,21437.761905,7.087041,333.653347,425.133998,14.465339,67.152518,3.92959,0
7.181321,195.330252,21166.700622,7.13601,333.988049,433.085312,14.271493,67.84427,4.010933,1
6.25515,153.640493,24316.16334,8.211595,367.344534,295.042492,12.503661,91.270792,3.146483,0
7.274167,198.345444,21874.037437,7.167124,334.864916,420.397868,14.304318,64.807901,3.957563,1
7.159444,197.300378,21659.523939,6.967576,328.567043,418.139605,14.188827,66.893639,4.003786,1
8.347949,231.203101,13533.230033,7.623604,313.671127,527.380871,18.663901,58.052866,4.217861,0
7.053151,195.662257,21727.978044,7.081757,331.941459,426.428957,14.340396,66.066702,3.943543,0
7.058075,198.907003,22968.822804,7.177365,333.881863,422.767822,14.032211,67.418647,4.023123,1
7.151064,194.500958,22543.1708,7.167611,332.709736,431.259262,14.083096,65.680249,3.950186,1
7.160569,197.86849,22442.440436,7.155643,332.326999,428.484797,14.133403,67.084694,4.018336,1
7.144244,196.365882,21821.633383,7.082155,332.817108,423.999665,14.457329,65.744792,3.954088,0
7.243516,194.828945,21527.355114,7.161969,332.985226,426.348452,14.173882,66.088864,3.91183,0
7.191533,200.428488,22528.752666,7.211764,333.260047,427.76266,14.177507,66.843537,3.955411,1
7.041969,196.419525,22824.091105,7.178719,332.611857,419.4275,14.309052,66.454501,4.052546,1
7.13261,194.903549,22079.657914,7.150688,333.236601,422.701312,14.105261,66.732866,3.975621,1
7.007475,193.877634,21812.844461,7.291799,331.192834,432.989033,14.567684,65.872881,3.979574,0
9.545271,212.046391,25189.830622,6.203869,316.567319,498.266959,20.051519,52.901127,4.983903,1
7.119884,196.45111,22657.341992,7.047232,331.455374,422.160681,14.165874,65.811451,3.97143,1
7.014267,194.596787,21481.896505,7.090334,332.433617,425.01317,14.445678,66.153746,3.956208,0
7.102376,195.769458,21990.990812,7.046176,330.500441,420.303401,14.236131,66.682868,4.031072,1
1.431782,228.130383,12937.246891,6.214773,319.734136,495.379883,12.033344,61.141119,4.948443,0
6.934621,196.676138,21800.224114,7.057963,333.922325,426.710407,14.546166,65.80818,3.952543,0
7.192013,196.563028,21138.481757,7.096037,334.936612,431.392148,14.021781,65.587793,3.923857,0
7.051482,194.637191,21608.834475,7.038097,333.436121,430.654142,14.181261,66.735481,3.972721,0
7.023552,195.011971,21034.320521,7.048021,332.670662,435.437364,14.438422,66.543479,3.945543,0
7.166306,197.713761,21879.438741,7.077054,334.422802,432.142482,14.41592,68.123351,3.943807,1
7.142185,193.18403,22279.828832,7.119277,335.926007,428.255808,14.181142,66.312235,4.047365,1
7.278601,195.655074,22533.490461,7.013975,332.908124,422.866609,14.105993,66.125753,3.925659,1
7.041541,195.982881,21776.468477,7.046452,336.000664,428.332619,14.748164,66.837658,3.928924,0
8.305064,177.174394,8451.319111,5.807122,335.871718,361.691437,14.359351,50.926671,4.461211,0
7.192368,196.78961,20816.816225,7.153014,333.073515,432.014277,14.401387,65.674746,3.948914,0
8.966836,228.691355,16764.854765,7.137871,320.555995,456.426489,12.599998,77.330137,3.654355,0
7.19465,195.278203,22030.758489,7.191588,333.034772,424.178339,14.235979,67.848389,3.999648,1
6.95872,197.335855,20976.860458,7.095257,332.332734,428.535204,14.09861,66.739186,3.947495,0
7.025637,196.886845,22749.924138,7.233291,330.702079,430.570323,14.299612,66.286732,3.964326,1
7.11354,193.160779,21982.943795,7.087769,334.114076,430.495308,14.317377,64.474515,3.998012,0
7.081532,194.664343,21123.079901,7.083382,334.774438,417.91215,14.2516,65.894854,3.889913,0
7.372612,220.387164,17606.885689,9.426339,274.206804,551.145207,14.826441,67.305421,3.182521,1
7.046523,196.645871,21700.31348,7.037122,330.322524,430.439411,14.429881,67.440196,3.909294,0
7.042072,197.497325,22442.388136,7.317577,335.348388,425.261031,14.47164,65.705754,4.000496,1
7.052696,195.238231,23134.302498,7.212561,330.0748,429.288943,14.253305,66.65514,4.01471,1
7.124509,196.903616,22663.768717,7.092806,331.224528,424.053582,14.188733,66.143623,3.984992,1
8.891674,184.869606,41801.441837,3.409576,337.047108,461.076821,13.715504,42.078122,4.522599,0
7.11663,197.478069,21435.94257,7.351544,331.015367,426.213125,14.142529,66.289614,3.98591,1
7.033992,196.401962,22491.023523,7.167287,332.53293,427.729766,14.048744,67.693573,4.005658,1
7.152807,194.822726,22439.945414,7.097583,334.163808,421.257125,14.796934,66.115682,3.978223,1
7.084111,197.761459,21826.2972,7.177715,334.22984,427.831931,14.032,67.083004,4.009606,1
7.002269,196.084998,22714.747151,7.258874,330.825578,425.316278,14.13554,65.338964,4.013136,1
7.233007,195.577739,21377.417991,6.975157,332.434107,426.843628,14.604058,67.104444,3.885339,0
7.046923,195.153131,21164.375794,7.097311,336.081767,430.788127,14.658819,66.612745,4.000556,0
6.504113,171.722555,20852.764496,7.70499,282.105545,359.46095,13.475273,83.62226,5.396623,1
7.071322,197.317396,22108.932282,7.209393,336.568553,421.905757,14.270427,65.997203,3.927877,1
7.060723,194.555228,21429.513777,7.090562,333.360303,428.497109,14.371754,65.73292,3.960432,0
6.936229,197.057618,22439.451134,7.103441,330.599839,419.544421,14.285042,65.864698,3.990369,1
7.152801,196.307829,21047.963074,7.237341,333.747578,432.45172,14.236966,66.284678,3.895365,0
7.283008,198.111522,22294.811363,7.092275,329.395309,425.299459,13.995719,65.967782,3.969383,1
7.189017,196.54374,21766.242901,7.139858,335.849043,420.9496,14.384618,65.346312,3.944,0
6.265637,159.29019,18711.064662,6.835968,314.223053,499.604629,15.061714,68.107216,3.266029,0
7.122317,194.053798,23023.263102,7.105339,331.410922,433.003809,14.391037,67.03494,4.019542,1
6.581878,272.982745,37169.444404,8.114731,416.083481,351.476839,15.129334,79.261026,4.201663,0
7.034597,195.967557,21737.588277,7.164415,328.989073,425.230955,14.407363,66.604018,3.9104,0
7.027454,192.863905,21146.292314,7.106734,333.153909,426.456602,14.314848,65.455691,3.979189,0
7.081062,196.624746,21819.490663,7.022669,335.122676,430.262621,14.483835,65.577574,3.998512,0
7.075408,194.36404,21660.954441,7.083533,336.092597,428.487052,14.246772,65.298482,3.94735,0
7.223391,198.127335,21469.071997,7.066635,331.951126,426.495774,14.004751,66.28035,3.929795,0
7.038672,195.975021,22234.77877,7.340909,334.365393,421.817265,14.344848,66.562775,3.950966,1
10.026159,224.266358,14962.177833,7.428313,336.97295,517.512842,18.858519,65.363452,4.182278,0
7.725333,252.265491,36477.738112,8.386761,426.54359,339.411327,17.485844,60.483885,3.724837,0
7.133382,197.200765,22307.819079,7.101286,335.434408,426.299422,14.303786,67.702138,4.002896,1
7.034457,194.951334,22067.217584,7.144905,335.777864,422.805893,14.437162,66.20793,3.974083,0
7.128753,196.095331,22740.070283,7.174885,331.486427,419.466704,14.152288,67.159188,3.913048,1
7.07515,198.281351,20948.996592,7.088513,333.057233,427.817775,14.455898,66.00741,3.975012,0
7.296909,149.079496,15931.429226,6.550096,276.013273,367.904802,14.723055,62.634449,4.671448,1
7.091939,198.674672,21346.450489,7.161892,336.971585,421.129915,14.449198,66.864068,3.923213,1
7.058445,199.004134,22854.563446,7.061171,334.336249,419.348052,14.320265,67.404306,3.973167,1
7.130118,196.458755,22320.63842,7.221834,332.217629,420.12094,14.292941,65.961833,4.005392,1
7.026689,193.945897,22252.849693,7.241561,333.15188,426.21017,14.364031,67.109779,3.965158,1
6.998755,194.828275,22055.330942,7.129502,333.107498,428.945469,14.216287,67.057267,3.983006,0
7.228791,193.411438,22318.009644,7.205947,330.509607,432.74383,14.248268,66.143763,3.941532,1
7.169156,193.664432,23598.735036,7.194775,333.467912,419.090869,14.131207,66.779392,4.00252,1
7.06827,198.918119,21873.8947,7.127477,333.92329,427.742342,14.238626,67.039378,3.965993,1
7.126408,197.472759,22112.471973,7.202612,334.207388,425.134724,14.247382,66.123121,4.012722,1
6.995915,195.938717,21552.635794,7.068783,333.806504,419.644869,14.595846,65.429508,3.925443,0
7.239843,196.330534,22627.701913,7.183326,333.102083,422.127258,14.235058,66.53107,4.046461,1
7.143348,198.127865,22809.388735,7.38633,332.475593,425.445088,14.321952,67.425703,3.982658,1
7.116849,194.078604,21777.084225,7.168885,333.24106,427.142133,14.521993,66.104606,3.975708,0
7.104469,195.716151,22462.223753,7.184017,329.638408,424.574035,14.481999,66.366159,3.898819,1
7.167044,195.794095,21495.707853,7.222326,333.105507,431.925209,14.300031,65.019841,3.9417,0
7.06223,198.370788,21574.264414,7.109031,334.189358,426.236074,14.050967,66.138127,4.01556,0
5.678221,143.186508,18377.008261,7.145335,418.247228,359.774711,18.714478,77.447639,5.429782,1
7.020388,197.121683,22049.398657,7.325347,336.450673,433.673755,14.479201,66.382766,4.01887,1
7.075569,195.810969,22337.700821,7.272749,336.536974,427.948578,14.134402,66.659888,3.934309,1
6.155249,159.519502,19781.6106,10.08161,310.140661,505.108379,16.768604,41.995455,3.803909,0
7.071621,197.095524,22728.392608,7.123161,333.216862,422.72207,14.317852,65.683013,3.994742,1
7.36064,165.520797,32452.614409,7.550701,326.624353,425.383419,15.58681,78.740016,3.662292,0
7.058188,197.724869,22860.422931,7.264131,333.849277,422.302367,14.296146,66.438677,3.926975,1
7.20115,199.176078,22054.095866,7.141637,334.966335,428.770943,14.402536,67.715718,4.0701,1
7.215801,198.339637,21215.879267,7.123546,332.731867,431.839132,14.574577,67.570607,3.972925,0
5.899937,205.913786,30379.359441,9.446148,312.28321,512.336528,6.306055,55.065243,3.858979,0
7.128325,194.531913,22988.750483,7.210949,330.940997,426.481897,14.418667,66.298294,4.032978,1
7.021563,193.775772,21654.965033,7.026257,333.294367,428.628523,14.165175,66.066286,3.955891,0
7.096496,199.01772,23223.817406,7.123106,331.450674,420.576895,14.395473,66.346859,3.948332,1
6.89102,195.812252,21422.59879,7.057113,331.562182,428.527212,14.31022,67.336972,3.95326,0
6.965855,195.960051,22328.558946,7.139855,332.554162,418.332126,14.511098,65.866455,3.989076,0
7.04272,196.849785,21990.009778,7.349277,332.629511,432.853838,14.284423,64.825089,4.020608,1
7.029069,195.111396,22741.779344,7.350431,335.572859,421.082029,14.282041,67.619976,3.906392,1
7.004603,196.914454,21353.560759,7.067485,335.728242,426.66229,14.471625,66.163171,3.938996,0
7.132944,195.795977,21800.106716,7.236108,332.446912,431.052108,14.34286,66.718647,4.014102,0
7.150407,196.396792,22536.092137,7.254672,330.391709,426.965525,14.169345,66.327638,4.063161,1
6.905538,194.070064,22447.841335,7.124398,331.605406,431.07886,14.708727,67.07245,3.918487,0
7.005159,196.412998,22246.51481,6.962262,329.843469,425.247008,14.105184,66.210711,4.00371,1
6.982982,197.841151,22288.880566,7.145346,334.164183,429.189788,14.087922,66.078589,3.995089,1
7.149768,199.474071,22564.643814,7.20888,331.895343,427.216615,14.149172,65.418306,3.974424,1
7.795558,136.090677,26484.515316,7.55532,426.500022,471.413356,14.544948,51.491197,3.629252,0
7.366672,234.200641,15547.186626,7.8514,364.105692,393.253915,15.161577,64.732311,3.39445,1
6.089431,207.267133,11339.166055,8.888347,317.279123,531.768988,11.674318,48.35825,4.366861,0
6.985623,195.990442,21656.184802,7.023753,333.297573,432.523348,14.40187,66.225973,3.984742,0
6.849781,195.198408,21903.673093,7.088629,332.34745,434.415064,14.423661,65.766548,3.932215,0
6.893069,195.362448,21508.106792,7.097079,331.68045,429.443413,14.411967,66.623725,3.98496,0
7.138227,198.619369,22459.300129,7.069786,332.605817,430.558988,14.24757,66.858737,3.992048,0
6.356511,164.618185,17538.541172,8.345192,345.144958,430.959505,15.329438,47.021382,3.415526,0
7.165045,193.618663,22100.208758,7.188639,330.309896,423.49402,14.153046,65.264095,3.993431,1
7.444914,203.068746,25489.075026,8.175744,413.560378,405.420612,13.2831,74.412867,2.571392,1
7.116133,204.040782,25131.665279,5.402655,292.324403,424.003499,12.83671,55.404587,3.915382,1
7.07085,197.600939,22684.396649,7.103283,326.34815,425.835081,14.365674,68.099156,4.049005,1
7.204465,195.044985,22600.633024,7.082694,333.269332,423.589309,14.114551,67.424554,4.007072,1
7.077067,197.72953,21962.63487,7.12254,336.323672,426.608459,14.418714,66.870154,3.964784,1
8.951652,205.892346,15189.327822,3.016033,283.867695,406.309187,19.125825,65.639328,1.844372,1
7.097593,196.591796,22867.062886,7.23441,333.195921,422.727742,14.161903,65.843032,3.936739,1
7.073399,197.760413,21672.445011,7.183834,331.19262,425.716538,14.248696,66.385246,4.069775,1
7.176735,195.199469,22116.95765,7.209901,330.078797,421.835757,14.320424,67.793488,4.031538,1
7.139298,195.306422,22984.505142,7.295188,329.458886,421.99147,14.280928,67.085373,3.935663,1
7.039427,195.791422,21712.642516,6.94707,333.896789,430.653003,14.384684,66.562626,3.982609,0
7.160476,198.845967,21778.761744,7.129699,333.755787,425.673367,14.412796,66.868157,3.946179,0
7.058722,197.701843,21587.367029,7.074041,331.131991,430.341625,14.374926,67.061858,4.001933,1
6.95789,197.278761,21753.708378,7.016315,332.597414,424.88441,14.376421,66.876475,3.964894,0
6.791097,209.128163,20149.179673,5.804,288.356856,291.304212,12.327335,57.303577,3.08404,0
7.171164,199.611976,22359.373169,7.256644,332.550819,417.493736,14.364807,65.786327,3.96922,1
7.080436,197.573487,22241.272432,7.178889,333.853764,424.787844,13.959612,67.288112,3.963203,1
7.225839,198.65113,22328.261191,7.224011,333.879268,431.800305,14.240574,66.383153,4.007924,1
7.11026,196.892228,21810.816204,7.402314,333.171353,431.022817,14.224182,66.019974,4.030783,1
7.089709,196.01164,21909.87445,6.982123,336.35642,420.003497,14.640102,67.113764,3.958728,0
6.996621,193.784344,21635.987655,7.146866,329.305521,424.361311,14.443615,66.425783,3.94821,1
7.027526,198.061023,21379.797985,7.135573,332.050214,430.343005,14.059541,65.371966,3.963977,0
7.159666,198.259685,22224.751146,7.155421,330.65989,433.914792,14.108471,65.500181,4.008575,1
7.07181,195.564582,21842.505145,6.979081,336.402273,434.422848,14.462561,66.287808,3.949927,0
6.932446,195.055966,21091.841354,7.234524,332.206551,427.968411,14.110885,65.397481,3.942541,0
7.971299,151.03293,29827.793969,7.662154,405.829894,376.912212,19.382739,78.160133,2.43914,0
7.105763,195.777249,22177.316199,7.084516,333.489862,422.604018,14.552871,65.559831,4.050636,1
7.153381,195.916749,20548.069666,7.024149,334.95681,431.278595,14.381585,65.688105,3.943876,0
7.016848,194.141939,22816.961425,7.298561,328.601052,422.346681,14.537396,65.48132,3.952294,1
6.992366,195.607686,21245.575714,7.148121,332.772263,429.087377,14.220432,66.534125,3.926023,0
7.219762,195.690347,22473.830127,7.157948,332.419443,419.529061,14.076484,67.597901,3.954773,1
7.12382,200.037971,23167.125251,7.250291,332.785754,427.692036,14.400766,66.849573,3.875446,1
7.175527,198.302923,21451.162056,7.248006,333.409022,420.903461,14.254202,67.092602,3.949072,0
7.065003,197.198184,21483.52946,7.015441,335.522315,427.376424,14.543026,66.631079,3.95876,0
6.934679,194.777205,22602.639747,7.127036,332.403474,432.873151,14.28179,66.819701,4.011307,1
7.114001,197.532059,22414.456169,7.032524,330.228823,435.760609,14.570475,67.067131,4.007392,1
7.094476,197.482312,22396.573227,7.167202,331.274224,426.801117,14.21164,64.718322,3.945965,1
7.055477,197.780844,21189.988852,7.075281,332.667041,432.960375,14.11687,66.908568,4.000133,0
7.455541,225.314151,16242.060281,8.204102,350.108093,331.673824,13.114965,60.162148,2.930365,0
7.093694,196.835074,22240.320893,7.365413,331.840902,422.020731,14.241688,65.67762,3.952936,1
6.908617,195.147273,21881.737665,7.059588,334.049858,424.278074,14.255919,65.950964,3.963656,0
9.062822,246.629701,27959.926161,5.649971,308.780769,434.395439,21.142053,44.149348,3.73037,1
7.218879,195.312761,22505.770025,7.215064,332.766809,418.955544,14.331557,67.556516,4.022815,1
3.230973,120.785449,13691.094972,6.835951,328.240289,261.435215,18.406139,54.852123,3.281921,0
7.098884,196.501746,22082.639452,7.258698,332.621217,423.116814,14.289961,67.759659,3.988928,1
7.115631,196.964555,21424.416806,7.155276,331.842062,425.823496,14.419819,66.182762,3.87291,0
7.267251,196.209476,22852.812332,7.121102,329.359886,426.660692,14.535661,66.942777,3.991612,1
7.142978,194.405177,22665.815659,7.209404,330.102006,425.03203,14.039981,67.007322,3.941934,1
7.090326,196.361523,22638.423937,7.104657,331.073769,428.538231,14.04613,66.306607,3.892029,0
7.005868,196.846284,21938.847786,7.247443,332.109389,429.974446,14.219297,65.015403,3.99767,1
7.11898,160.962603,32528.115614,5.089128,292.287888,440.317871,10.008146,61.679801,5.349211,1
7.017988,195.291595,22486.106477,7.120511,331.64886,419.733133,14.106349,65.430468,3.962,1
7.082967,198.459486,20973.408248,7.260321,333.703093,432.720838,14.311048,66.446652,4.006557,1
7.098428,195.186059,21596.803791,7.048433,334.191502,429.756951,13.938688,65.416028,3.975892,0
7.304122,197.088144,21465.733906,7.207814,332.720409,429.921039,14.433613,65.899509,3.999003,0
7.046549,128.482517,30569.810551,4.449123,281.724714,348.264591,15.142006,58.157304,2.869226,1
7.17459,195.899391,21492.741259,7.277293,332.985088,419.465964,14.129188,67.282239,3.953265,1
7.096248,199.200671,22723.178062,6.988762,329.982474,424.922416,14.426916,66.75288,4.00205,1
8.534407,248.577482,22372.303267,2.993744,366.146249,341.760198,14.692902,78.708937,2.544734,0
7.02937,193.825896,22875.351536,7.121078,332.474709,419.351169,14.430729,66.710397,4.035929,1
7.05451,198.133735,21705.252497,7.204248,329.430484,434.235337,14.201684,66.122249,4.008421,1
7.18435,194.633413,22002.33935,7.247341,333.472431,432.090927,14.475482,65.724852,3.997417,0
7.08919,196.088123,22023.494521,7.085317,335.105471,426.987216,14.326259,67.653445,3.95803,0
7.273839,198.083302,21573.950876,7.084621,333.485631,423.254698,14.188378,66.44644,3.96942,0
6.957273,198.747249,22450.441209,7.019931,338.538173,426.924938,14.25022,65.769708,3.980883,0
7.069316,195.529045,22031.445151,7.13677,332.556597,421.394982,14.395704,66.868086,3.97928,0
7.130964,196.697226,21224.527265,7.049466,331.239526,435.828411,14.384335,65.451513,3.96659,0
7.154205,198.49709,22373.192624,7.206096,329.715,434.951481,14.263005,66.710962,4.024126,1
6.925,196.159083,21912.312148,7.153224,334.601476,430.246913,14.298453,67.259407,3.979691,0
7.06872,195.086241,21215.042142,7.100606,331.071979,428.224156,14.411043,65.764318,3.966706,0
8.154841,202.317335,25620.771365,7.651668,367.224297,597.870073,11.802847,72.384762,3.696328,0
7.154249,199.093508,22064.03147,7.096086,335.255903,425.967856,14.491542,67.299416,3.988759,1
7.032882,192.033346,21594.480958,7.083951,336.915833,419.264599,14.138595,67.268228,3.930569,1
7.121503,194.943396,22289.074305,7.272878,331.009234,412.765706,14.287863,65.981915,3.99445,1
7.095569,196.734927,30235.170803,5.984901,308.203694,453.954757,16.062739,31.55501,4.861276,0
7.475537,215.429102,31359.386456,7.498495,337.462379,477.235053,12.18631,53.90882,4.015574,0
10.201426,190.799079,8918.8926,4.899875,306.495369,331.378952,18.525434,68.547448,3.96445,0
7.050747,193.970591,22694.141997,7.115257,334.032409,427.450765,14.362541,67.703217,3.993091,1
7.06145,198.642317,21240.377423,7.106963,332.562459,423.93099,14.607884,65.913887,3.947067,0
7.20651,195.97296,22595.768441,7.149242,331.28498,423.420122,14.514451,65.841499,4.003354,1
7.04362,199.154044,21633.203142,6.992378,333.273822,424.610413,14.242696,66.793075,3.907271,0
7.032266,195.279607,21547.358545,7.192823,334.848261,425.952384,14.406443,66.291687,3.928426,0
7.106089,196.086929,22504.815433,7.122023,337.691377,420.731514,14.367303,66.874354,4.06578,1
7.127157,195.508087,21519.97727,7.322328,332.852565,419.790009,14.320621,66.584105,3.99876,1
7.281458,194.489512,23159.402399,7.08471,332.343461,417.800932,14.648653,66.909225,3.978297,1
6.962601,195.105939,21768.444143,7.227061,333.147279,420.400305,14.28597,65.840405,3.853195,0
11.496859,186.125296,12253.303389,8.06698,325.409341,260.531758,9.674083,68.073928,5.005193,0
6.916839,197.895971,21891.980448,7.168298,332.880063,434.103729,14.600617,65.661391,3.964859,0
7.044521,197.062933,22035.291994,7.209886,333.783461,432.56069,14.540369,66.231213,3.9598,0
7.058098,196.808929,22021.896607,7.089049,329.795109,435.657818,14.297928,65.875433,3.982297,0
7.129115,195.4503,21746.148549,7.171486,332.879202,428.21267,14.273714,66.947021,3.856233,0
7.004991,198.472187,21304.233037,7.311586,332.670195,428.708983,14.459721,67.827118,4.01017,0
7.130833,196.198527,21861.865729,7.246961,333.726242,422.718696,14.31262,65.768224,3.936701,1
5.304143,160.968358,25299.511557,6.286043,300.500689,497.790391,15.01303,61.115513,4.165724,0
7.276863,165.797952,30396.904619,7.835639,281.896882,475.646051,12.326184,83.399889,6.083772,1
6.99512,197.243079,21503.373821,7.108472,331.69198,424.643491,14.480831,65.80256,3.93939,0
7.103334,195.783159,23076.68705,7.204036,337.044668,428.035152,14.055104,66.938743,3.942371,1
7.008885,197.224578,22317.280522,7.285926,331.309759,417.383741,14.375959,68.586062,3.952403,1
6.900473,194.495924,22043.534871,7.279724,333.29216,422.364515,14.321248,67.297164,4.101609,0
7.069496,195.913325,21397.003101,7.041882,335.136641,435.020532,14.492912,67.19892,3.924212,0
7.065349,199.535384,21230.588114,7.083529,333.401833,427.92368,14.62773,66.334124,3.988123,0
7.077538,193.414276,21959.439967,6.995639,332.250154,428.091489,14.855009,66.500642,3.970723,0
7.125965,195.877202,21919.224827,7.060017,332.453049,418.796899,14.286999,67.394481,4.005315,1
7.218027,197.109166,22221.098927,7.073159,331.317576,422.05761,14.254171,66.84525,3.997622,1
7.1469,197.844551,21123.792183,7.144007,332.112455,425.528189,14.196122,66.322187,3.992043,0
7.173354,196.35726,21719.007267,7.093207,333.374682,432.485533,14.033399,65.622163,4.020677,0
7.188261,195.193087,22303.439992,7.253794,329.710754,426.309572,14.098657,66.89797,4.005822,1
7.295826,193.692865,23440.78659,7.09516,332.351011,423.949608,14.286398,65.43161,3.994027,1
7.155658,194.845018,22381.412103,7.085891,330.86773,427.431642,14.280733,68.481631,3.959569,1
7.076428,196.640046,21609.990095,7.146602,331.498726,434.05048,14.312633,67.274552,3.809704,0
6.980309,197.588262,21652.837077,7.049567,333.67704,426.165406,14.305152,67.639721,3.945005,0
7.100664,194.589265,22457.502445,7.13182,330.788027,421.536072,14.379411,66.400072,3.940217,1
7.221545,195.311491,22585.073369,7.124034,330.616893,424.008028,14.013996,65.244722,3.980216,1
7.198365,195.047122,22315.628924,7.275898,330.297894,422.044465,14.180052,65.089049,3.973102,1
6.584839,196.133985,16609.925489,6.673977,323.372352,304.713665,12.501554,85.682146,3.919955,0
7.108501,195.620361,22344.790446,7.129173,332.730031,420.620125,14.673045,65.711379,3.946388,0
7.053151,194.958227,22236.662251,7.15675,334.388938,433.790916,14.150976,65.932334,4.020249,1
5.936057,222.922307,18061.697568,9.982724,421.722024,323.499231,14.298521,51.868885,3.940282,1
7.026732,195.296462,21618.212199,7.13801,332.938773,428.533833,14.423846,66.60739,3.905617,0
7.081644,199.60461,22549.416277,7.195677,334.039886,424.712269,14.407964,67.282211,3.905861,1
7.754884,210.720769,18857.058497,5.693752,376.484622,375.672691,14.708599,43.29982,5.12839,1
7.062288,195.34035,21920.114354,7.007134,335.571456,423.000462,14.490248,66.471845,3.925822,0
7.07903,195.799174,21893.896591,7.146758,334.397778,423.903896,14.378974,67.305749,4.032531,1
7.094271,196.580883,21862.480809,7.082906,331.938114,429.908415,14.546556,65.448568,3.926089,0
7.210154,200.218748,22640.234109,7.233158,336.071064,422.641392,14.343708,65.72959,4.020332,1
7.124716,194.652344,22083.467525,7.05811,333.917999,429.545358,14.201133,64.797107,4.034894,0
6.931836,195.420629,21471.885247,7.089197,331.384886,425.23397,14.551943,66.659934,3.966275,0
7.014223,193.114264,22210.567492,7.091901,330.046356,433.353918,14.167149,66.740671,4.044225,1
6.93045,196.851853,21718.954737,7.195847,332.14161,432.885498,14.379261,66.120137,3.894454,0
7.17024,194.358498,22502.671701,7.222163,333.54204,421.043035,14.20624,67.904308,4.060615,1
6.970671,197.446979,21166.417667,7.105734,330.381174,426.171486,14.268739,67.108613,3.921507,0
6.83426,182.454462,21670.569891,6.407648,325.950411,397.337508,16.506658,74.462646,2.658843,1
7.001166,192.769081,21821.486897,7.03087,335.572902,423.640962,14.432265,66.487597,3.949325,0
7.123183,193.314998,23326.059902,7.069882,334.157966,428.045624,14.393144,67.011604,4.009076,1
7.145569,194.885386,23140.001938,7.23188,332.642761,421.028973,14.057883,67.628186,4.029029,1
7.015322,195.089527,21958.179901,7.046341,332.197785,420.94582,14.254386,67.090076,3.993696,1
6.933755,195.72378,21073.449432,7.078394,335.987297,425.736886,14.452985,65.745994,3.942506,0
6.965914,195.980009,21094.914803,7.038382,334.198366,430.085286,14.59783,65.812094,3.92267,0
7.108894,196.380424,21586.434552,7.148377,333.41524,432.297933,14.179981,66.587022,3.968893,0
7.234154,196.62718,22805.651821,7.214648,331.353147,422.776387,14.141277,64.727022,3.980573,1
7.977636,245.89513,32170.06916,9.635636,399.583155,473.662453,11.728338,23.81702,3.552129,0
7.042854,196.616401,22480.09622,7.074974,331.247183,424.435952,14.074547,66.161123,4.032808,1
7.164537,194.911402,21751.714081,7.146651,332.859572,424.596054,14.145983,65.514759,3.970807,0
6.541008,195.566889,29616.492869,7.108628,328.99854,530.799668,11.899398,68.141446,2.355934,0
7.028643,195.597288,21734.916038,7.199229,333.599787,437.752331,14.372313,65.908616,3.930136,0
7.160614,196.825818,22156.120469,7.252773,330.120912,424.577382,14.272912,67.114942,3.927942,1
7.094684,196.583745,21133.978231,7.155389,333.216878,430.323493,14.453417,67.463668,3.987192,0
6.994509,197.672789,21811.633829,7.248193,335.577144,426.28144,14.374922,66.917439,3.954739,1
7.172324,199.489917,22486.247446,7.003503,331.560292,425.446001,14.300296,65.745628,3.90709,0
7.162413,196.998612,22139.019501,7.05526,334.965641,428.361996,14.202477,65.766172,3.952414,0
6.920343,207.821363,16689.799604,10.031146,286.413862,481.955877,9.771896,78.295022,3.266213,1
7.095718,198.897335,21622.348065,7.102207,331.9659,430.501309,14.485553,67.990448,3.9796,0
7.133259,198.050445,21495.39697,7.086426,333.224403,426.475336,14.134909,65.520219,3.898138,0
7.831118,182.473876,19130.961531,6.803061,340.275949,433.460437,10.793996,75.8957,3.807997,0
7.09886,197.431763,22128.873657,7.072251,332.804616,430.022802,14.133234,67.26124,4.004181,1
7.015787,197.326242,21697.900917,7.092895,336.05924,431.339679,14.070363,66.240305,3.943494,0
7.131331,195.678673,21102.836926,6.915891,335.540579,435.713987,14.314636,65.921578,3.97819,0
7.286417,197.121024,22396.18378,7.123448,336.10464,422.56936,14.428712,67.540307,3.944697,1
7.117348,194.880113,22562.442157,7.12153,332.340688,419.835106,14.442229,66.275992,4.02988,1
7.139725,193.854244,23416.768047,7.295748,333.200482,423.28106,14.487372,67.785117,3.968786,1
7.124402,198.673031,21903.46965,6.947599,331.865727,432.447155,14.270378,65.637148,4.010859,0
7.16881,197.383701,21553.718996,7.132033,337.161962,430.748047,14.605102,65.642861,3.987922,0
7.027646,194.711945,22013.44693,7.188935,332.421796,423.911571,14.521632,65.70552,3.942331,0
4.292967,212.808645,30434.269118,8.630313,333.48254,382.922363,15.779922,39.775513,2.804924,0
7.083071,199.400294,21881.457782,7.093469,332.438806,429.914139,14.269222,65.484538,4.002529,0
7.159206,197.220749,22398.101442,7.071243,329.238429,424.972975,14.733472,65.482118,3.982694,1
7.076531,198.411187,21072.20043,6.950657,334.329132,430.912825,14.405635,64.484584,3.936252,0
7.090297,196.455383,22395.586329,7.043486,331.776323,427.639994,14.366,67.05908,4.080907,1
6.937325,198.864606,22250.53843,7.128467,327.098165,430.558586,14.49508,65.795523,4.04591,1
6.96301,197.262869,23383.551797,7.456431,332.41614,425.722244,14.413965,66.260813,4.031686,1
7.125023,197.863485,21608.996253,7.260369,335.829928,427.374791,14.229005,66.187016,4.01226,1
7.102896,196.916372,22111.865098,7.135551,338.079316,420.169363,14.112191,67.277778,4.025657,1
7.126438,197.61266,22972.764877,7.145712,331.756388,435.261167,14.381778,67.659886,4.017038,1
5.329939,196.034623,24000.523144,5.729575,335.092322,511.705187,18.588091,68.458037,5.799322,0
6.775631,154.372543,15525.393963,6.084133,343.032161,597.979274,17.118543,56.124024,3.017544,1
7.243662,199.466084,22024.553721,7.164966,331.69072,420.670616,14.412361,67.548085,3.961772,1
7.109758,196.37887,22094.259764,7.129838,331.716842,431.529117,14.133156,67.86999,3.978248,1
6.904004,196.914478,21964.195667,7.067501,332.959182,432.108828,14.326064,67.226918,3.996793,0
7.158909,196.249266,21999.445598,7.155177,333.105475,425.408448,14.431618,65.72327,3.897512,1
7.056058,198.405004,21759.792035,7.055604,336.933579,433.129181,14.425924,66.65684,3.95383,0
7.162093,194.80177,21970.075268,7.228787,333.143881,425.123062,14.371237,66.033733,3.927215,1
6.971345,197.398189,22773.251737,7.200854,335.199063,416.059263,14.332516,67.444309,3.98277,1
7.035444,195.406736,21319.817175,7.104694,330.68983,427.51983,14.526675,65.948646,3.922657,0
7.122463,194.933224,20592.150168,7.125027,332.687546,426.477709,14.416728,65.623762,4.000858,0
7.188853,196.257209,22983.806439,7.29494,333.368929,430.497977,14.584466,66.327514,3.948727,1
7.001405,192.572197,21146.779457,7.29931,333.035744,425.776373,14.408527,67.300937,3.915964,0
7.013437,194.251022,22151.30893,7.112011,333.361043,429.163905,14.610486,65.647411,4.017926,0
7.635265,205.067631,17796.374638,7.156738,306.800286,370.561027,17.486815,32.92072,3.948304,1
7.095566,195.184017,22264.353704,7.257259,331.109011,420.838413,13.945234,66.864717,4.024204,1
7.039713,193.308808,21325.311797,7.039272,334.412615,429.987937,14.495785,66.893895,3.948282,0
7.083712,196.771962,22215.39128,7.18776,330.540761,431.763449,14.458216,65.748441,4.00889,0
6.381977,211.917276,20709.279762,6.171162,278.949273,525.075478,16.684074,74.529806,4.991896,0
7.140944,193.964731,21611.920771,6.997731,334.764316,422.598743,14.593322,66.853776,4.009305,0
7.045445,194.235845,21251.623829,6.887392,333.896036,424.799775,14.448495,66.98117,3.985007,0
7.031066,197.337632,22048.95997,7.202533,327.572495,425.037824,14.415551,64.362819,3.962489,1
9.370697,157.719364,15106.308647,7.762862,316.391974,424.915677,15.645998,108.213981,4.380797,1
7.06529,193.155058,21072.96419,7.029861,336.396119,418.285054,14.426724,66.669502,3.926168,0
7.181551,195.911215,21634.331927,7.041521,334.155104,430.378493,14.405286,66.407664,3.947285,0
7.108334,194.53437,22763.840495,7.14786,330.92677,425.690824,14.355567,67.583542,4.009033,1
7.075078,197.30735,22116.634211,7.210506,331.74944,427.082995,14.430242,66.476608,4.008539,1
6.974368,196.552068,21604.893458,7.036423,332.508824,430.94862,14.29889,66.390473,3.927751,0
7.23886,197.834408,21645.739459,7.281498,337.809421,420.978531,14.46586,66.4278,3.993797,1
7.156714,195.348927,22716.317017,7.263335,334.456143,424.417417,14.455086,65.801641,3.99011,1
7.195625,195.447298,22583.105918,7.131246,330.946265,427.29843,14.346835,64.894163,3.991484,1
6.597292,191.787442,25039.354696,7.294577,395.739529,501.532653,14.695391,80.050031,4.318305,1
7.134822,194.88669,22892.243267,7.235778,332.11835,423.500486,14.333255,66.272645,3.974549,1
7.152787,196.566803,22092.322538,7.152553,331.112406,427.972133,14.112849,66.599478,4.00563,0
6.845994,196.881063,21631.923988,7.105432,334.229501,429.400317,14.511162,65.271196,3.919082,0
7.18575,197.191211,22480.8298,7.285292,333.697083,430.036504,14.489981,67.006613,4.017555,1
7.07855,194.550935,21903.481111,7.10534,333.813399,428.374302,14.324186,65.114238,3.96614,0
8.205551,204.665829,17414.520623,6.839622,276.770098,346.540729,12.505601,83.916749,5.129528,1
7.050917,197.491785,21467.562359,7.184409,329.989053,429.726258,14.47227,65.67635,3.962506,1
6.519848,183.225998,14284.647917,8.389078,373.091575,495.417954,11.638475,58.661649,3.272286,0
6.999179,195.999884,22646.748214,7.247587,329.358618,418.941661,14.482642,66.772996,4.030436,1
7.130257,193.60497,22212.110414,7.131869,334.065736,425.44855,14.443865,66.517443,4.049219,0
7.06325,196.413329,22661.151763,7.194774,330.306535,425.945213,14.231282,67.035718,3.97488,1
5.584087,188.313324,28748.687739,7.544869,326.678363,280.467916,8.399735,54.917862,2.559708,0
7.60688,183.8401,29339.929268,5.703617,259.534719,426.985942,14.006983,91.590703,4.56446,1
7.092151,197.086085,23351.552673,7.3317,334.413209,426.86914,14.19988,66.090873,4.018754,1
6.947161,193.447437,21560.280521,7.020281,333.671889,426.142749,14.501328,68.057,3.935097,0
7.045854,194.386378,21380.169681,7.079435,336.043108,427.493915,14.345131,66.464527,3.922882,0
5.810742,151.876172,25419.551655,7.874166,313.364797,494.152974,14.646685,77.373813,3.436967,1
7.113621,196.320126,21122.599136,7.140065,333.579455,420.668821,14.216133,67.704557,4.038719,1
7.070786,194.937993,21453.270698,6.996452,328.282177,423.54265,14.536356,67.033324,4.044305,0
6.607503,231.565799,26420.809564,9.57782,418.240943,443.315775,15.671203,61.364421,3.447111,1
7.02726,193.087979,21905.725588,7.034522,336.997306,429.503288,14.45897,65.754023,3.934779,0
7.014906,196.008303,21913.244707,7.078731,332.752544,426.524317,14.459563,65.18191,3.938197,0
7.002347,198.327033,21828.519822,7.001937,332.574369,432.626496,14.415384,64.945644,3.932954,0
7.040777,194.34891,21405.988078,7.100386,333.628125,425.458101,14.467227,64.857121,3.872193,0
7.176019,195.492648,22195.909487,7.224228,330.038415,424.704212,14.109874,65.32247,4.042739,1
6.915899,197.141226,21026.423904,7.158974,333.390146,429.407107,14.122814,65.46274,3.941239,0
7.13828,194.550679,22435.362212,7.211375,331.879809,430.704119,14.210664,67.491023,4.04921,1
7.221813,196.123566,23264.723187,7.287728,332.34789,425.252196,14.297582,66.599791,3.974025,1
7.040931,194.592277,23136.080148,7.337873,333.566492,421.511298,14.16419,65.567665,4.039288,1
7.154864,196.279988,21979.259003,7.19825,336.462137,426.594187,14.466915,67.028245,3.988881,1
7.165964,196.108811,21799.510953,7.15893,330.777816,428.261532,14.25297,67.941079,4.003858,1
6.490037,205.541517,19397.323889,7.894245,368.561073,479.786195,15.805085,56.98202,2.430883,0
7.097593,194.482432,21352.874749,7.107071,334.318693,426.903945,14.305519,65.281662,4.00623,0
7.148514,197.112846,21705.899806,6.992009,332.121475,433.001375,14.515465,65.80314,3.998738,0
7.077538,195.508841,20865.185299,7.098272,330.11826,423.164877,14.300897,66.621566,3.89771,0
6.900177,193.85471,21160.463471,7.099713,333.006801,424.732852,14.314742,66.235009,3.972385,0
7.013353,195.472161,21845.527692,7.018151,336.642764,427.768118,14.323556,67.053536,4.020142,0
4.594209,185.632858,27981.09119,6.761683,354.785217,380.723252,13.983833,74.576914,4.91791,0
7.896744,197.602078,9407.664039,9.610056,400.274579,270.794059,11.300587,53.201848,4.889458,1
7.101236,197.272962,22113.96363,7.221811,335.583523,415.497795,14.541197,66.798474,3.934078,0
0.227499,152.530111,39028.59934,3.462492,283.693782,443.029232,13.201943,62.322711,3.545741,1
5.327024,233.140588,13580.618483,7.362411,356.420271,438.553499,10.049772,55.232271,4.855821,1
7.133996,196.776754,22626.823767,7.34013,329.566739,423.226332,14.350289,66.301447,4.040378,1
6.897973,197.323081,20985.678508,7.082278,334.814582,432.011563,14.150255,66.424705,3.927073,0
7.145485,196.064848,21566.765135,7.277823,333.194634,430.981,14.580845,64.855005,3.906624,0
7.255673,195.028836,21543.8541,6.986226,332.653172,426.882485,14.388818,66.241929,3.931235,0
7.135806,196.229323,22221.1147,7.239637,332.028141,417.3582,13.902265,68.018046,3.955837,1
7.127534,197.699522,20880.932776,6.915268,331.60206,425.365178,14.409829,66.910869,3.872143,0
7.121215,193.874993,22388.833548,6.995783,332.407949,430.950784,14.20622,66.444107,3.964996,1
6.340028,225.028148,45222.506665,5.809032,363.005755,435.500457,11.385937,80.670311,3.686001,0
7.220656,193.676804,22128.550222,7.165259,334.137409,429.49466,14.395926,65.366206,4.002377,0
7.034046,199.617448,22940.582716,7.204746,331.962432,418.517483,14.269765,66.040738,4.000133,1
6.985192,133.432132,21944.64183,8.577655,341.239907,536.277153,16.176686,91.708813,4.246202,1
6.979089,196.935066,21318.166462,7.200811,334.187895,422.399197,14.392558,65.003767,3.952245,0
6.961176,197.032584,21156.714171,7.114951,335.046963,429.697332,14.510763,66.864521,3.923074,0
7.082159,196.402623,21710.011608,7.226744,334.330233,423.236824,14.216304,66.453556,4.031006,0
7.210567,195.356779,20783.849603,7.097056,334.794504,437.20003,14.146498,65.950736,3.984426,0
8.053044,211.783235,37086.546054,8.267537,251.4435,512.899036,19.16662,73.248984,3.301575,1
7.039104,195.087825,21530.957636,7.046107,330.96476,429.347302,14.754275,66.349881,3.971889,0
7.14528,195.769166,21185.865269,7.002134,337.319493,423.976958,14.34345,66.690877,3.945263,0
7.049855,197.307968,21320.463836,7.163529,334.930048,418.946212,14.511041,66.943432,3.892476,0
7.069132,196.609642,21788.494379,7.084684,334.047645,423.42503,14.402077,66.310346,3.951416,0
7.050732,197.722478,21271.890082,7.145133,332.22508,423.279413,14.303594,66.724953,3.999247,0
7.181206,194.097767,21512.606231,7.325001,332.979012,424.83325,14.602934,67.244121,4.023002,1
7.057502,196.756213,22566.146983,7.259311,333.681795,419.347671,14.3318,66.52153,4.071114,1
7.157807,194.618427,22203.753252,7.152929,332.641979,431.536552,14.252913,66.998381,3.99962,1
7.062691,195.092183,22031.566996,7.037595,331.597067,427.001827,14.219334,65.915639,4.009368,1
7.030095,197.083457,21803.069682,7.15271,331.788407,422.787467,14.530625,66.340019,3.984176,0
5.906442,177.891369,27296.294045,8.869268,312.015798,385.812818,13.938686,60.613795,4.807496,0
7.445189,150.775723,4168.196994,10.573403,476.539717,355.578481,15.352425,74.760976,2.745804,1
7.017096,197.946554,21886.682472,7.031403,333.409745,431.735445,14.516217,67.679587,3.927528,0
7.240872,194.469347,21641.460048,7.22325,333.926294,426.125299,13.957629,65.994629,3.985972,1
8.847881,190.700853,11705.072282,6.663397,380.592491,386.464151,16.319105,85.693649,4.143451,0
7.14685,199.579639,22561.812695,7.306547,324.68564,429.919774,14.340306,67.528774,4.048944,1
7.092336,194.538858,20945.15476,7.034157,333.300421,428.615563,14.256362,65.971377,4.013675,0
7.069792,197.91312,21533.542414,7.087034,333.697926,423.15738,14.41618,65.75373,3.941649,0
7.124205,195.47868,23199.435775,7.180278,332.29035,429.578755,14.064222,66.801443,4.016811,1
7.151729,195.875177,22407.670188,7.165671,329.517847,427.492906,14.339316,65.529712,3.91363,1
7.170552,194.762962,22393.737372,7.211719,329.239254,435.893366,14.064991,66.513025,4.036979,1
7.199517,199.352838,22239.987099,7.263423,328.125573,423.025604,14.055401,67.907734,3.951097,1
7.084316,192.792361,21985.452109,7.080563,334.706806,428.033672,14.360335,65.808429,3.953663,0
7.064487,197.196429,22094.530533,7.079425,329.547935,433.793605,14.492333,66.245471,3.954909,1
6.935843,197.053591,21281.734587,7.095918,331.710958,431.795521,14.082916,66.584973,3.973988,0
7.147265,196.835606,21224.30898,7.17707,337.087378,433.697355,14.219013,66.493606,3.928953,0
6.914242,197.348764,21206.896494,7.08202,334.627547,431.781465,14.403449,66.82852,3.93134,0
7.229336,195.299305,22247.788293,7.155124,328.592043,424.476923,14.5821,66.252665,3.929198,1
7.045574,196.975121,21397.796757,7.170596,334.179255,428.146997,14.458222,66.126873,3.931932,0
7.106676,194.854864,21795.745372,7.097141,332.315345,427.776928,14.433555,65.888349,3.956709,0
6.94343,193.436813,22256.075163,7.09237,332.127207,429.991458,14.309993,66.289337,3.944076,0
7.186762,192.602765,22825.618713,7.224741,333.58685,419.911989,13.983946,67.540441,3.998752,1
7.44966,193.042081,32251.359648,6.086599,337.135046,572.806143,18.060298,57.401337,4.370404,1
7.91815,214.186611,23823.492888,7.290878,341.173322,411.424483,19.585002,25.057375,4.028958,0
8.073279,191.815523,17106.438645,7.898732,333.477592,432.898749,13.335381,54.216284,4.854313,1
7.251331,192.908355,21599.928065,7.126592,329.099696,418.747026,14.317122,67.026355,4.003708,1
7.001962,195.106983,21319.827795,7.128044,335.773149,431.522636,14.466478,67.864775,3.899337,0
7.255704,197.154538,21781.708451,7.109358,334.199117,429.412763,14.142571,65.206907,3.928729,0
7.028936,196.482266,21237.879584,7.166751,334.98265,431.945207,14.53599,65.525452,3.950354,0
7.015449,194.176142,22215.466756,7.032221,328.320387,425.519485,14.425329,66.93922,3.999755,1
5.903994,196.274726,19399.221972,7.641895,328.269272,324.045681,18.505372,77.157802,3.820021,0
7.082866,198.150223,22233.645598,7.362737,335.649854,424.287316,14.567902,67.699556,3.965004,1
7.117579,186.19968,31528.94869,6.387037,335.348881,380.578265,19.073996,75.903072,4.333402,0
7.073678,199.720031,21533.471216,7.023422,333.293489,427.118436,14.192793,65.798063,3.927684,0
7.074434,194.754279,21516.658649,7.060937,333.675777,422.405672,14.465471,66.071921,3.943716,0
7.079763,196.933017,21749.355772,7.381403,334.598639,417.806864,14.224248,66.198717,3.958212,1
7.125395,198.138401,21830.320651,7.074168,333.913408,430.047514,14.482425,66.710914,4.018584,0
7.115188,195.601013,22526.68738,7.278258,330.530538,426.002058,14.204026,67.534212,4.123569,1
5.039407,194.40417,19336.608073,7.194765,339.232126,515.807182,10.728669,61.129517,3.126956,0
7.302287,193.653451,22635.610287,7.081258,330.294593,417.564319,14.447159,66.570524,4.105518,1
7.138619,194.218117,22841.182106,7.087515,330.93383,423.314573,13.983412,65.584144,3.976561,1
6.785004,193.780743,21429.870572,7.096315,333.85328,425.347334,14.459182,67.433739,3.928366,0
7.003838,195.404334,21225.340488,7.174021,336.350338,423.6665,14.165123,66.733259,3.946386,0
7.169977,197.259345,22064.906689,7.185491,331.764432,423.224645,13.839809,66.544423,3.982931,1
7.073752,198.788741,22319.966751,7.151281,332.812587,427.288712,14.361638,66.684525,3.977578,0
5.492156,176.271404,26422.097889,8.072934,366.644766,500.938788,7.609798,59.396787,3.294129,0
6.157443,155.835706,25937.711438,8.163144,298.192406,533.288351,14.356496,68.120761,4.770154,0
7.096402,195.095586,22515.001126,7.073927,329.517323,425.944742,14.228104,66.163502,3.971454,1
7.186215,196.944062,22516.2867,7.237553,333.045029,435.157409,14.059576,66.392943,3.988044,1
7.050535,193.630764,22496.909911,7.194108,333.693931,423.885632,14.239097,66.363864,3.991504,1
6.965658,195.937706,21702.535734,7.069991,334.663689,426.83766,14.321157,68.103013,3.975856,0
8.018832,197.785588,23104.520387,9.67486,322.934548,395.738631,13.337748,68.850204,3.188477,1
7.061923,193.148461,22222.776498,7.145023,332.230367,424.916966,14.216407,66.547458,3.989915,1
7.111119,194.814907,22282.716106,7.244679,328.867092,419.865497,14.122355,66.605955,3.97073,1
7.00164,195.656472,22396.233737,7.231987,330.459941,423.557481,14.400145,67.54486,4.017444,1
10.14629,242.151734,24649.674748,4.803373,347.069725,348.484039,17.614799,73.001545,4.481552,0
7.274969,198.273548,22302.118343,6.985197,332.745755,424.460169,14.248033,65.836913,4.009502,0
6.882464,197.35205,21835.72294,7.035215,334.661776,428.60785,14.296821,66.429519,3.988941,0
7.043544,194.569746,21320.859614,7.05117,329.614684,426.86534,14.707165,65.723616,3.956526,0
10.486808,185.087914,26453.003348,9.548769,392.346252,455.743845,15.976018,47.400093,3.804352,1
7.103062,195.693404,22295.597572,6.969718,333.933973,437.127846,14.340516,66.920424,3.95002,1
7.120087,196.123753,22327.605254,7.231877,332.806607,426.189955,14.36965,67.202787,3.989195,1
7.195581,197.145657,22923.309906,7.047332,332.071226,431.13576,14.246743,66.647755,4.006193,1
7.057317,194.766651,21499.35328,7.26114,328.192705,425.695816,14.28655,66.829686,4.004303,1
7.146833,197.755528,22909.534753,7.205253,327.738588,418.250182,14.316694,67.720375,4.091028,1
6.635894,194.04978,20339.01687,6.032864,307.954902,412.582989,15.894674,57.643457,4.523237,1
7.184385,196.556221,22193.429336,7.113359,332.751857,423.798171,14.57116,65.067827,3.948907,0
7.21524,196.835261,22026.822413,7.068463,331.407538,420.006761,14.222478,65.657467,4.052246,1
7.097561,197.107275,21445.766094,7.143525,334.508059,435.962741,14.21046,65.592273,3.945292,0
8.064653,214.816681,27172.893573,6.369175,253.481228,490.280353,12.45883,65.399484,3.324113,1
7.163018,195.32205,21465.133304,7.079987,334.625787,427.156452,14.257874,65.841449,3.998246,0
7.140729,195.96212,22386.631691,7.114635,329.837967,423.098393,14.363315,66.761021,4.025856,1
6.988651,195.225382,21028.95071,7.144847,330.949109,423.387813,14.356152,66.669045,3.98561,0
6.970114,197.774688,21857.360758,6.995815,333.696741,434.474264,14.350249,66.097623,3.974827,0
7.144698,195.090332,21255.534386,7.145735,333.238614,423.44002,14.071647,66.27759,3.980921,1
7.07514,196.538621,22964.139214,7.101803,331.586413,430.378599,14.187772,68.332721,3.956409,1
7.19059,197.038936,21913.806575,7.017211,332.739529,426.565554,14.436331,65.886168,3.969435,0
6.93147,156.841195,35793.757787,7.286336,384.654803,398.647944,17.858242,72.236525,4.249333,0
6.013161,218.843256,21573.747571,9.295852,321.168313,444.276635,14.744347,62.443239,3.455623,0
7.127334,199.037706,22391.695929,7.340187,332.519215,428.786461,14.34422,66.369291,3.963249,1
7.127747,197.622009,22697.024637,7.097839,334.122815,425.118405,14.554938,65.548927,3.957726,0
7.052276,191.049251,22647.363609,7.342415,327.380324,426.185742,14.248972,67.003661,4.00188,1
5.953982,186.457084,32241.079614,8.439681,347.713157,416.090998,14.638927,68.907754,4.071916,0
6.980648,199.168219,22322.728032,7.118217,334.193479,430.202541,14.521224,66.463521,4.004195,0
7.071808,196.693114,21456.661167,7.009361,332.964121,429.122113,14.105614,66.991915,3.897106,0
7.052757,198.110944,20741.503368,7.094143,332.226727,435.261353,14.426068,65.787221,3.973653,0
7.06598,198.066915,22477.757344,7.098601,331.205875,428.09681,14.213212,66.163037,4.010215,1
7.066609,196.953046,22325.726348,7.200541,334.422734,423.185757,14.625703,67.196077,3.972896,1
7.080179,194.774438,22080.926312,7.224841,331.706957,427.070494,14.619318,65.234664,3.996095,1
7.091172,196.614972,20902.478723,7.169258,334.033669,427.159311,14.533276,66.96529,4.007924,0
7.108202,192.755932,22630.660867,7.396126,332.006037,424.993528,13.860123,67.357209,3.929673,1
7.790875,196.478712,24061.349596,6.785685,350.117254,471.518536,15.343316,44.544627,3.076214,0
7.178032,196.847995,21362.680271,7.3057,331.729689,422.997963,14.351232,66.7765,3.971655,1
7.135134,195.016085,22417.659162,7.00387,332.077619,426.144614,14.517536,67.031276,3.985078,1
7.209665,199.920825,22319.090178,7.181922,331.775197,416.422669,13.967959,66.464692,3.999006,1
7.028345,195.713243,20559.99031,7.025592,334.582816,423.980066,14.547684,65.452605,3.936292,0
7.079026,196.072055,22863.529716,7.213006,332.054492,424.084563,14.445644,66.013913,3.977353,1
7.147108,195.845603,21644.466555,7.110062,334.736685,426.082906,14.500274,67.128881,4.007124,0
7.089184,179.045838,21065.663658,7.471614,377.778024,571.575505,12.623104,85.241179,3.266029,1
7.037517,196.670447,22012.610104,7.246393,334.009354,426.758554,14.684173,66.245529,4.052194,1
7.182774,197.503144,22363.308321,7.211731,338.951901,424.34021,14.546998,66.340837,4.003045,1
8.935116,218.394054,23774.258279,6.414852,324.844691,413.004844,13.45058,63.579317,5.168298,0
3.41036,207.397473,49074.730407,5.667433,301.975011,351.520393,15.98737,86.639186,3.721766,0
7.130779,197.006035,21718.627733,7.284486,334.089804,424.697226,14.125082,66.994337,3.958129,1
7.018634,194.085315,22624.675612,7.064722,331.321783,431.425196,14.088213,66.348991,3.980235,1
7.199938,196.133936,21756.065103,7.20267,331.721808,426.787413,14.481015,66.232202,3.982713,0
7.172071,198.910333,22081.057659,7.129124,328.63134,421.811156,14.338183,65.912893,4.050529,1
7.098434,195.086124,21795.281529,7.164991,331.872027,431.93948,14.443984,66.155294,4.021417,0
6.994044,196.155172,23041.509351,7.139651,335.507774,424.53567,14.032741,67.737006,4.007718,1
7.138965,197.309532,22991.311798,7.136935,335.752316,429.494233,14.189987,67.022641,3.954297,1
7.102934,195.015139,22437.701896,7.250291,331.535289,430.164609,14.376625,67.018016,3.963974,1
7.162044,198.194789,22588.765226,7.149283,332.121733,425.442962,14.353436,68.215139,3.990506,1
7.068763,196.990134,21415.399588,7.078046,334.586111,434.353961,14.501179,66.712247,3.996592,0
7.13282,197.508809,22312.107429,7.003295,330.812861,423.930038,14.083213,66.88646,3.944359,1
7.11603,198.702556,23004.333315,7.226765,331.644663,428.077663,14.113157,65.779684,3.991581,1
7.157555,196.608452,22338.859923,7.162204,332.821652,425.09086,14.593156,67.203869,3.958497,1
7.117433,195.289342,22644.933934,7.161318,326.131093,431.689803,14.486773,65.838916,4.02687,1
7.049392,195.594959,22190.332248,7.160554,334.409496,424.768022,14.567793,64.965628,3.976342,0
6.578681,203.408815,22374.82491,6.248929,399.617217,547.702137,12.09792,71.338489,4.292042,1
4.886057,272.920385,15496.611719,6.985179,266.562211,569.581288,17.301536,79.597988,3.079373,0
6.975744,195.346947,22492.856924,7.03736,329.232401,428.354032,14.360145,66.006147,4.015329,0
6.969649,194.11891,21681.975923,7.190172,335.836666,424.522061,14.495562,66.174279,4.009393,0
6.896823,194.46071,21965.388452,7.057809,333.713903,433.988714,14.761945,65.89553,3.932565,0
7.16143,193.775712,22575.780018,7.232887,335.585817,423.892771,14.530665,67.170162,3.984468,1
6.320428,210.310043,11682.229317,6.968423,311.777822,375.964558,11.973422,62.960463,4.553381,1
7.006013,196.488899,21414.184058,7.111645,334.880634,425.389872,14.352647,65.242887,3.929532,0
7.177594,198.109233,22520.61628,7.255831,333.889864,423.926703,14.336673,67.27061,4.00087,1
7.160318,195.829571,21980.90793,7.254441,329.792542,426.085506,14.278671,65.333004,3.986271,1
7.834319,171.288785,25918.567953,8.589394,307.228666,448.564049,16.407803,60.182115,3.532936,0
4.86507,174.060457,15222.246444,5.839219,412.03712,333.504327,15.266615,68.926353,3.974972,1
5.907078,213.471081,41839.456449,7.924762,312.329947,357.25897,15.598965,54.421879,4.29648,0
7.116704,197.273221,22559.417729,7.204074,332.156178,424.286911,14.05481,65.751963,4.000095,1
9.045721,222.184169,22829.110842,7.609833,293.062459,558.747863,15.357583,44.555264,4.2137,0
7.223629,198.085099,21677.957301,6.935161,331.839492,423.962231,14.609725,66.779651,3.951857,0
7.153967,197.51976,21699.385669,7.104659,332.812446,426.206325,14.315966,66.297388,3.951365,0
7.048355,196.630294,21450.091365,7.104988,335.828165,428.662929,14.294148,66.645131,3.973505,0
6.879718,196.761786,21636.702927,7.129836,331.157108,422.125497,14.373478,65.920319,3.912987,0
7.057031,193.183788,21996.932897,7.120531,330.220407,422.952989,14.045903,67.292479,3.966787,1
7.021291,194.2015,21917.412024,7.069349,334.4618,426.719494,14.348481,66.918866,3.959102,0
7.079531,194.12918,22483.265163,7.217184,336.37574,423.89412,14.497994,67.662285,3.951802,1
7.051928,195.662326,22898.483428,7.223296,332.396931,430.532462,14.049591,67.113007,4.026703,1
7.127864,197.452585,22499.316728,6.99615,333.293655,419.106839,14.42646,66.19122,3.990003,1
7.134447,194.043521,21652.559124,7.059665,334.991665,425.041542,14.40004,66.065249,3.838213,0
6.947407,194.596597,21608.730816,7.122843,335.352525,429.466473,14.430004,66.685562,3.938743,0
5.573201,229.174987,15613.160533,4.157902,383.481116,409.066577,10.751904,63.758516,3.599625,0
7.150137,193.52035,22600.234756,7.100035,335.323692,424.107125,14.339637,66.930566,3.945593,1
7.093265,198.111725,22201.163503,7.059084,331.045913,430.336902,14.170203,67.355093,3.971896,1
7.065954,196.107287,22467.446683,7.193871,330.589314,419.949467,14.302361,66.581001,3.974721,1
7.110136,196.466417,21457.37511,7.043593,332.70866,424.101138,14.149187,64.963569,3.876427,0
7.161131,194.859062,22510.63153,7.242288,326.913782,423.224276,14.414437,66.441839,3.988836,1
7.043098,196.101246,21544.935298,6.985165,332.368963,424.00905,14.213537,67.787686,3.961136,0
7.112857,196.485981,22624.483237,7.122638,332.038891,432.137974,14.219912,66.21339,3.995404,1
6.981215,201.882411,22262.46597,7.382522,331.995727,433.931552,14.359272,67.202383,3.988702,1
7.075964,198.392158,21892.707254,7.178271,333.311134,425.998387,14.417126,68.490357,3.938023,1
7.117926,199.135285,22000.288695,7.096418,335.193379,425.190237,14.368596,66.837303,3.97862,1
7.741245,218.237186,22824.699465,8.696479,363.992748,521.016261,15.310631,73.72307,3.741143,1
6.901072,193.487828,21664.128579,7.083341,332.0869,422.9491,14.261106,66.027366,3.922512,0
7.285371,169.14919,17375.970745,9.404687,394.092424,373.190282,15.26051,80.795985,3.694482,0
7.402929,198.674943,21144.688819,7.138103,337.848983,433.0008,14.086085,66.046339,3.942757,0
6.709336,226.427586,8238.290038,7.692413,289.92138,284.774459,11.86848,51.875207,4.074387,0
7.201623,196.113242,21738.445591,7.24088,334.998898,421.207259,14.268241,66.286458,4.027457,1
7.078371,198.382272,21242.760433,7.107129,328.553221,427.622868,14.257462,65.243335,3.997167,1
7.098124,195.485363,22029.928339,7.323102,329.996211,434.629296,14.464903,65.395842,3.971998,1
7.132285,196.296415,23049.838725,7.249766,330.387308,423.261148,14.251484,66.145038,3.948971,1
7.128595,193.376311,21846.777487,7.365999,332.341451,426.182333,13.956696,66.573008,3.920844,1
7.080874,194.103009,22073.938619,7.242317,333.080551,421.805253,14.43151,65.293215,3.921727,1
7.110221,195.842017,21933.519295,7.126099,331.262501,419.154502,14.054507,66.082411,3.977006,1
7.116119,194.376402,22070.127896,7.185436,330.148184,427.313935,14.345016,65.289893,4.013912,1
8.470546,199.489716,26559.380406,7.904381,351.738925,491.519705,9.50488,66.146355,2.935802,0
7.060804,196.47534,21928.077679,7.215789,331.472009,429.114952,14.595318,66.755718,3.986306,1
6.53937,214.638603,21230.431409,6.485594,336.974861,532.572785,18.263688,90.908081,4.527364,0
7.091196,195.835397,21690.553954,6.95127,332.738787,428.681907,14.431418,65.836283,3.970612,0
7.202663,197.918467,22421.569128,7.160792,333.375697,429.008157,14.316731,66.649039,4.058806,1
7.241613,194.277028,22089.821661,7.021425,333.826246,434.445188,14.318413,66.407072,3.871766,0
7.028962,192.805225,21848.929595,7.168292,334.764018,426.412926,14.189487,65.42429,3.922303,0
7.104696,196.409101,22628.812449,7.192924,333.737593,422.822337,14.198913,66.647658,4.049643,1
7.088979,197.162186,22007.373921,7.074471,335.046055,437.225583,14.132788,67.873432,4.002378,0
7.176871,198.76575,22468.727252,7.297679,329.874995,428.711753,13.986183,65.893331,4.047576,1
7.086402,194.687536,20791.529014,7.025459,332.025825,429.428104,14.209706,65.27097,4.032775,0
7.04314,195.032372,21606.266763,6.94846,334.39489,420.665173,14.684727,64.98635,3.938883,0
7.007598,196.720759,21157.594827,6.949155,333.528136,433.00534,14.144656,66.259568,3.931128,0
7.101798,195.389147,21482.035562,7.094429,333.775558,421.208578,14.65674,65.638655,3.956757,0
7.098239,197.025786,22268.327205,7.165473,333.487166,428.840949,14.156391,68.232643,3.985991,1
7.6235,170.427572,36267.266658,6.040735,301.219091,404.501369,12.495658,79.946113,4.764995,1
7.04089,194.889859,21462.133686,7.176874,334.3488,430.458311,14.526329,67.230017,3.998944,1
7.024964,198.709074,22057.340527,7.168402,334.610619,424.24306,14.4569,66.760114,3.978312,0
6.984403,195.88979,21090.45743,7.061963,332.515283,428.473862,14.35908,66.629068,4.028686,0
7.206223,197.35298,22205.558487,7.078774,333.204095,425.200353,14.174782,68.302885,3.919179,1
7.160039,199.4226,21184.622051,7.018863,338.351932,430.115549,14.202524,66.830208,3.883071,0
7.015115,195.861881,21659.585435,6.989232,334.642438,434.126134,14.266339,65.565851,3.964326,0
7.11795,196.68712,21161.750688,7.038042,336.036145,427.864731,14.560766,65.495635,3.911294,0
7.0359,198.644977,21794.663551,7.134909,333.64065,433.746893,14.586272,66.024331,3.921384,0
7.078119,198.427783,21844.18642,7.116765,335.581188,424.651325,14.116478,65.683622,4.02778,1
7.135606,197.711658,22217.928597,6.983662,328.582063,429.766151,14.396139,67.44589,4.001228,0
6.601407,205.621022,19635.588255,7.173229,344.034461,430.559852,12.172053,57.356347,3.973576,0
7.057956,193.844125,21894.736519,7.196886,331.645884,427.977729,14.18547,65.763575,4.06679,1
7.050098,194.203706,23321.120391,7.111437,335.727762,424.657564,14.126994,66.196289,3.966111,1
7.096145,196.997789,22862.712617,7.067506,331.907835,429.321032,14.274583,67.083306,4.054904,1
7.220306,197.183806,21592.899322,7.234186,328.894964,421.770636,14.332373,65.327704,3.996004,1
7.172697,195.79446,22796.025929,7.027804,332.021335,422.279941,14.257443,67.742789,4.035039,1
7.086481,196.261682,22086.117026,7.23106,329.306191,424.171833,14.348148,66.752542,4.015776,1
7.014857,194.439021,20851.956305,7.052364,334.473213,434.627832,14.42351,65.263633,3.9334,0
7.001565,196.031874,21015.612117,7.013981,331.670085,434.792964,13.975378,66.521897,3.941473,0
7.230993,196.119397,22733.37097,7.216296,332.290426,423.080295,14.575657,65.780846,4.012431,1
7.368166,204.041451,8524.874646,9.469763,429.814322,328.565288,11.173155,88.888819,3.684263,1
7.128125,198.335522,21518.469219,7.055758,334.397207,429.28097,14.307362,66.33377,3.922809,0
7.060565,199.88799,21502.084291,7.221329,329.189244,430.752155,14.503221,66.585771,3.977404,0
7.102958,196.718721,21154.051846,7.247692,336.449784,427.399178,14.453542,65.206366,3.962266,0
7.11812,199.698151,21554.503369,7.254164,332.430459,434.05684,14.35166,65.424877,3.980065,1
7.119942,195.373955,21812.483205,7.155073,334.322012,431.195501,14.0127,66.862958,3.957266,0
7.094639,194.888914,22920.960763,7.173058,330.229996,424.966546,14.31232,66.02121,3.962349,1
7.171783,193.365598,22593.724153,6.979679,334.469278,423.457807,14.151342,66.026188,3.970982,1
7.142129,192.806493,22803.981324,7.009131,332.668006,430.397459,14.059436,67.241221,3.936992,1
6.427721,166.850237,12215.409083,7.696751,376.282617,352.74537,20.130483,66.735044,2.904453,1
7.06457,192.948777,21564.922009,6.936193,332.63577,429.863816,14.129674,66.372875,3.897221,0
6.692532,200.404351,37033.152091,4.727072,280.844916,376.672794,12.485257,57.818484,2.942115,1
7.063184,195.692487,21548.627328,7.322538,329.231605,425.408478,14.376882,66.890406,4.0068,1
7.610509,208.817812,34538.544038,5.60062,301.787241,470.740312,15.668908,35.365054,4.692218,0
7.148401,195.447942,21957.002174,7.112108,333.29671,421.43213,14.097686,66.702315,3.94776,1
7.117936,196.264823,21396.723791,7.085684,335.126657,436.512464,14.210301,66.229369,3.968465,0
7.106812,197.238803,21736.787251,7.094311,333.577995,422.770221,14.634606,65.54065,4.015412,0
6.959275,195.460756,21298.967544,7.032943,331.068,424.887903,14.517835,66.307289,3.988837,0
7.192747,196.517879,21505.095059,7.085664,333.004878,425.498854,14.529566,65.65763,4.016369,0
7.243907,196.456123,22870.129328,7.186881,332.991999,427.457381,14.263532,67.821922,3.96296,1
5.11739,225.657404,30914.111579,6.207729,371.649392,356.862287,8.073421,77.388138,3.937188,1
7.016279,197.647361,21806.353335,7.176137,332.164296,429.468036,14.378602,66.822961,3.981365,1
7.000988,195.530711,21299.07369,7.022304,331.857922,426.09629,14.59706,66.587269,3.908789,0
7.132485,196.636116,21772.140045,7.250351,330.36436,431.941505,14.031192,65.870694,4.064233,1
7.132604,194.326125,22627.062713,7.241749,330.827468,425.837279,14.098111,66.092182,4.031203,1
6.901112,195.348552,22780.675015,6.999864,333.952695,419.161897,14.349886,67.561319,3.968681,1
7.079042,195.310383,21840.471678,6.964784,332.797801,429.502772,14.376341,67.619163,3.977457,0
7.167537,197.650033,21530.431558,7.046696,333.860643,425.67432,14.525654,65.487313,3.917228,0
7.150843,194.474145,21869.281592,7.259227,330.622442,424.253497,14.0032,65.042928,4.005677,1
7.125621,194.666766,22608.086586,7.376702,330.406388,425.123178,14.179192,65.824817,3.941714,1
7.122319,193.431952,22100.691208,7.333837,331.880156,424.42994,14.081737,66.128144,4.013486,1
6.351287,162.213345,22337.448393,6.867964,379.613803,337.077349,11.712149,65.967814,3.707054,1
7.044641,196.069003,22009.996336,7.150558,332.87453,425.560258,14.368181,66.170744,3.917684,1
7.057783,193.612015,21630.871341,6.990472,336.203275,426.456122,14.716573,66.372425,3.994626,0
7.144126,195.626961,22257.783898,7.172093,332.525174,419.138567,14.143976,66.3793,3.938183,1
5.660736,232.749854,16488.017513,6.262933,294.210317,385.748053,18.875941,76.982658,5.016188,0
6.152858,171.125287,24978.483177,8.216486,323.824376,406.094427,10.881215,65.714718,4.403083,0
7.075535,197.649859,22322.128562,7.28029,329.221883,424.848346,14.361298,65.62862,3.976092,1
7.207378,195.512427,22096.483547,7.204167,329.577174,420.427089,14.169503,65.674279,4.017333,1
6.643159,188.913541,32873.820022,6.791509,333.848842,336.561501,14.70681,67.844849,4.562198,1
7.116348,196.787412,22250.473904,7.156279,331.562132,429.069598,14.106693,67.552108,3.963363,1
6.926899,195.466664,21240.840135,7.131212,337.786482,434.68202,14.356494,66.397993,3.957727,0
7.106712,194.825562,22079.366806,7.043801,337.912707,424.925376,14.099767,66.555449,4.016677,1
7.175843,191.634937,22310.645952,7.263472,333.24462,421.480619,14.305759,66.61057,4.006453,1
7.041138,195.165362,21214.729341,7.176572,335.275407,433.301473,14.409445,66.761592,3.93715,0
7.098172,196.470862,20552.553987,7.160603,334.794845,428.995636,14.508596,66.53398,3.99541,0
7.080392,198.369964,22373.696388,7.016948,327.366817,426.431122,14.122859,65.863534,4.017275,1
7.101443,194.860776,23067.146579,7.191247,334.258886,427.323482,14.259071,68.363271,4.019405,1
7.226966,196.593168,21859.186082,7.079277,333.840612,418.745133,14.403236,65.057218,3.957087,0
9.252893,236.098786,12855.346238,5.784976,276.286305,329.922765,12.609077,55.61776,3.566435,1
7.019891,195.138249,21574.996642,7.128283,331.365242,430.222657,13.920714,67.933213,3.973648,0
6.980288,193.379928,21777.467603,7.404575,329.412968,427.442467,14.401901,65.818423,3.964667,1
7.2788,198.965016,22196.814143,7.263672,331.922286,421.643017,14.279803,66.097996,3.988814,1
7.282817,196.602227,21545.227954,7.221381,327.408036,420.458047,14.560903,66.812238,4.05055,1
7.030227,196.54708,21192.393333,7.073586,330.781347,423.288369,14.565323,65.924892,3.931175,0
11.496702,195.989486,14158.157283,7.235224,311.965093,357.522599,19.321722,82.350013,3.132253,0
5.923441,167.658602,25951.554036,6.296103,350.381981,471.857511,15.770464,53.321812,4.107364,0
7.01469,196.177445,21614.999947,7.021967,335.167993,422.439642,14.237539,66.740868,3.961756,0
6.643936,151.8896,10909.194592,3.749625,240.936722,437.909005,15.264742,64.203964,3.812953,0
7.143584,197.526838,22399.482178,7.227524,331.426427,422.146599,14.193988,67.732216,3.948701,1
7.094279,195.636042,21119.464636,7.019471,334.517957,421.929444,14.53239,66.212591,3.977173,0
6.964684,197.767776,21825.063306,7.176248,334.353638,421.469738,14.331241,66.107335,3.889199,0
7.0144,194.513111,22084.994755,7.321377,328.937984,423.130682,14.454559,66.852603,3.963576,1
7.183109,225.116079,5097.82585,6.081664,361.631381,294.991225,5.537059,81.453941,4.006425,0
7.575758,203.884373,20855.272321,8.109312,334.02742,532.311188,14.236013,74.638706,3.176433,0
7.111869,195.396674,21841.92552,7.077123,338.78823,426.760055,14.469354,67.251528,3.981039,0
7.265109,192.714497,22714.918556,7.211092,333.7649,427.104475,14.05338,67.086916,4.04313,1
7.134148,197.521885,22592.037657,7.118438,330.137439,427.609641,14.212992,66.614474,3.945817,1
7.039782,196.622758,21838.729115,7.136436,335.007481,434.237238,14.304993,66.327413,3.967779,0
7.15489,196.874524,21421.812943,7.281198,332.503777,429.529041,14.330942,66.446094,4.022965,1
7.108483,193.292124,21803.939483,7.228402,335.86066,428.580595,14.597872,67.049063,4.073644,1
7.176249,197.736617,22513.876472,7.181774,333.725099,421.027554,14.446392,67.147281,3.961409,1
7.004133,194.894791,21465.590458,7.154054,335.267872,431.671635,14.280076,66.029844,3.997609,0
7.152704,193.588581,21408.872449,7.002991,337.486502,418.609593,14.560653,66.897337,3.901166,0
7.136292,196.436187,21241.312156,6.991851,336.445543,428.764799,14.70725,66.851628,3.924628,0
6.332387,186.838028,23073.063966,8.082004,326.980476,233.907965,9.641442,60.940028,5.159002,1
7.160185,194.539131,22694.302574,7.259908,336.067809,428.864206,14.513171,67.577804,3.998681,1
7.062045,197.509387,21667.779762,7.169844,335.540934,421.687713,14.300534,65.801452,3.923298,0
7.03377,195.915647,22124.937283,7.140558,333.714613,426.223763,14.61427,65.775757,3.957931,0
6.961011,196.556186,22102.124779,7.215214,331.891645,434.936938,14.449025,67.57658,4.028001,1
7.148005,198.45671,22736.414789,7.033951,333.653364,424.067705,14.485585,65.536001,3.948309,1
6.878104,198.509301,22035.047631,7.000201,333.14852,422.877475,14.615153,65.757019,3.906715,0
5.040332,232.234479,25653.690231,5.929308,328.32958,529.052535,13.53941,38.346738,3.603326,1
7.050271,198.083107,23036.486002,7.181775,333.714262,423.798492,14.294172,68.198227,4.031852,1
7.248704,195.013456,22372.650586,7.1367,332.568796,424.627049,14.263573,64.165847,3.967881,1
7.162878,194.770703,21908.117588,7.064895,335.543815,424.199006,14.311181,66.477502,3.941597,0
8.310374,201.651667,23260.472005,9.345621,333.27137,292.315837,12.024866,63.64262,3.493054,1
7.05538,194.845338,22492.67307,7.077271,334.921956,425.851477,14.136762,67.723385,4.027502,1
7.022631,198.919999,22620.181773,7.316374,331.670302,432.696898,14.129326,66.19583,3.974021,1
7.044726,197.267306,22073.503199,7.162791,330.808398,432.06786,14.174413,67.948329,3.929751,1
7.107696,194.828454,22074.613998,7.110387,335.103326,430.183589,14.296966,66.252974,3.993616,0
7.023749,195.208364,21934.928828,7.055046,335.251351,428.120638,14.551122,66.740434,3.972084,0
7.195393,197.746189,22662.766794,7.110914,331.242486,425.239066,14.284502,67.354004,3.970309,1
6.985318,197.35307,21370.661878,7.238848,335.692876,424.564056,14.589125,66.464551,3.987882,0
7.070421,196.552913,21817.057901,7.189018,335.548333,428.240154,13.982032,64.708648,4.003693,1
6.969694,195.046014,22100.171387,6.981672,334.272782,431.476003,14.247267,67.076124,3.95349,0
6.981419,195.217084,21823.372645,7.127008,333.999303,428.766821,14.19215,64.937801,3.924876,0
6.280905,178.7072,16950.015907,7.866135,370.32635,388.552621,10.971432,74.608023,3.021289,0
7.109624,193.680315,21625.264364,7.202831,330.497566,421.558137,14.243449,67.084043,3.980916,1
7.137,195.691426,22043.854233,7.010843,335.535883,426.009633,14.350926,65.056582,3.896451,0
6.993437,193.950499,21861.3057,6.980052,336.651545,425.955967,14.628437,66.386624,3.885247,0
7.052268,193.235882,21803.261465,7.148541,332.87123,432.191566,14.27072,66.797821,3.946287,0
4.140077,253.599838,40626.84781,7.754533,265.468749,432.511197,19.126695,61.520018,3.167583,0
7.079814,197.029523,22840.469775,7.166289,332.19858,427.89765,14.049514,67.058457,4.007356,1
7.204331,194.592307,21973.294023,6.936136,335.103979,422.742296,14.402862,67.363328,4.041534,1
7.012774,196.543635,22017.774971,7.14582,333.19413,425.62939,14.449194,65.442799,4.068771,0
4.533399,169.735222,30301.856674,7.074907,413.102198,385.656123,17.060491,70.293339,3.188641,1
6.998737,196.595986,21077.896326,7.04548,333.396703,431.32322,14.051238,67.314581,4.011767,0
6.980062,164.12718,17625.466412,6.479558,372.748319,492.703416,11.665753,48.710293,3.969463,0
6.492639,172.86396,14625.561363,7.73657,349.404057,652.537592,10.212058,56.949724,4.66777,0
7.235444,194.751479,22548.465691,7.308429,331.323476,415.790755,14.505857,65.598496,4.01237,1
9.918717,199.181251,21470.278305,6.799841,329.178429,430.507707,15.966043,59.292273,3.385508,0
3.664711,201.097316,28102.756625,5.682035,330.023531,291.148449,17.470631,75.101801,3.316158,0
5.15274,185.342237,25669.71992,7.819479,318.450974,449.918993,18.301574,49.342036,3.842625,0
7.115929,192.764241,23505.427916,7.309151,330.508391,427.859841,14.120527,66.477352,4.026787,1
7.118216,194.258449,20880.244131,7.206549,333.808331,430.578841,14.56467,66.861567,3.980786,0
7.149407,198.521784,22313.843338,7.235497,333.781969,429.519747,14.140849,66.880818,3.950308,1
7.110592,195.830935,22528.847831,7.037972,335.957661,432.523608,14.13214,65.580818,4.003075,1
7.0695,198.073513,22734.073376,7.12054,331.760884,426.839357,14.184473,66.009707,3.975048,1
7.215206,195.935413,22155.285342,7.238146,333.348429,426.783116,14.435433,67.14598,3.920448,1
6.878996,194.207344,21187.37278,7.08127,335.682931,424.139126,14.242728,66.45762,3.91706,0
6.994362,196.16161,22360.286788,7.129229,333.490851,429.804847,14.383629,65.1608,3.948406,0
6.954712,196.079672,22388.701513,7.102261,335.328461,426.452689,14.233671,66.104748,3.887274,0
7.043987,195.802261,21995.326645,7.084536,333.737247,424.983131,14.410621,67.385838,3.935648,0
7.227294,193.894752,23477.699266,7.242137,328.603008,421.373649,14.468738,66.600558,3.937615,1
7.090952,195.66445,21716.835897,7.099139,326.437616,419.381773,14.423639,65.844085,4.005151,1
7.108419,196.492174,22705.21172,7.078737,334.380249,426.269465,14.313234,66.225786,3.973416,0
7.037083,195.063136,21270.811526,7.080768,333.004552,425.054945,14.483512,65.410283,3.980809,0
7.193764,194.751482,21715.268762,7.076969,332.021902,424.381178,14.304275,67.29287,4.088794,0
7.117151,193.549988,22539.970803,7.176585,329.303754,415.570657,14.386738,67.5998,4.011896,1
6.603641,206.919743,14598.025787,6.452141,316.253503,582.110606,12.520933,68.872497,3.403798,1
6.971976,193.617627,21337.655732,7.093155,333.231437,420.137608,14.351178,65.689388,3.890636,0
7.100385,197.28501,21733.130192,7.145667,330.14052,424.904242,14.377981,66.539418,3.991152,1
6.976832,194.649959,22248.51741,7.131263,329.650549,413.732197,14.551887,65.433314,3.923999,0
7.135572,198.968757,22989.002209,7.260242,330.443445,421.673603,14.381197,65.646881,3.976021,1
8.942046,215.673786,56488.672413,3.231438,129,541.915468,9.313771,70.828374,4.354288,1
7.083315,196.283085,21605.382507,7.044784,333.195299,430.77442,14.430801,65.364109,3.896544,0
7.19059,195.517051,22701.776928,7.130765,330.05147,427.176949,14.181498,66.394984,3.960978,1
7.043436,196.702492,22683.964065,7.197517,332.079213,423.654481,14.53571,67.727216,3.920655,1
7.263177,195.721609,22540.564617,7.113902,330.694729,417.770259,14.011875,67.452352,4.015512,1
7.055777,199.122367,22953.080863,7.198954,337.730124,427.094012,14.02513,65.288036,3.980794,1
7.181387,194.956581,21510.495917,7.146008,336.178534,425.469301,14.228208,66.68706,3.956274,0
7.151421,197.03604,23297.959286,7.129243,329.674656,418.958279,14.226783,65.114344,3.926495,1
6.706695,232.926598,27881.504407,7.881448,337.111017,443.208774,14.523389,64.12174,4.371882,1
6.969445,195.694489,21883.8898,7.108573,335.938382,424.681128,14.238709,66.399569,3.91475,1
7.022647,197.012186,21004.755115,7.062927,332.488379,425.253085,14.56292,66.424195,3.928687,0
7.135126,195.102467,22601.376929,7.16952,330.101929,426.785886,14.423544,65.315885,3.999437,1
6.990078,197.427808,22002.216793,7.260137,328.449993,417.294777,14.25999,66.844041,4.031441,1
5.711213,145.825869,21157.179729,7.954721,385.206097,441.086563,16.682025,70.470889,3.953335,1
7.228529,195.397074,20889.578425,7.157533,331.202104,426.503876,14.416623,66.488543,3.905111,0
6.901111,154.474092,21103.303188,7.9287,376.001071,450.252974,14.643306,71.321372,3.616498,0
7.098892,197.347163,21828.416717,7.2226,336.203827,419.700342,14.21326,67.90274,4.001373,1
7.074051,194.810668,20678.813865,7.043357,330.722366,427.074245,14.510649,66.00569,4.001473,0
6.438422,202.537835,26448.245087,5.775933,322.451774,567.201675,12.641968,55.701067,3.38036,1
7.036303,194.420378,22674.508501,7.227554,332.203328,430.23598,14.227474,68.495226,4.030543,1
7.161592,195.182801,22205.213609,7.171364,335.871991,422.105268,14.309514,66.51724,3.992841,1
7.1093,195.389712,21612.761466,7.045418,333.295102,429.474179,14.536767,66.295594,3.965876,0
7.153977,196.671425,23141.526249,7.189187,334.09244,427.988667,13.993625,67.38785,3.947786,1
7.02937,196.52775,21808.705623,7.249086,330.52073,421.532559,14.270899,66.293872,3.966972,1
7.102107,195.759994,22268.216573,7.077142,333.681023,427.092639,14.43474,66.453764,3.969949,0
7.11102,194.018955,22745.135338,7.197765,333.964376,419.656929,14.448602,66.948316,3.963281,1
7.106885,198.203774,21696.268285,7.135488,334.521467,421.84096,14.164172,67.144425,3.96838,0
7.118931,192.490176,22420.188957,7.280184,333.281372,426.109745,14.345782,67.024935,4.080413,1
7.14617,196.576898,23688.705615,7.1786,337.555599,431.139482,14.487848,66.164281,3.95255,1
6.965343,195.846547,21791.838274,7.055494,332.340827,430.111404,14.442421,64.960371,3.981491,0
7.088778,196.120379,22382.985777,7.060693,331.225501,418.567483,13.956501,66.687499,4.031775,1
7.046448,197.180856,21901.154889,7.001655,331.760696,427.50284,14.242562,65.750978,3.869544,0
6.994804,195.23689,21325.186275,7.091865,332.967391,433.832924,14.324932,65.892441,3.8718,0
7.090154,198.106876,22976.958733,7.304941,332.823295,430.080233,14.390647,67.007557,3.994988,1
7.030148,195.425344,21746.682827,7.065666,333.956209,423.946872,14.533268,66.36337,3.931286,0
6.957803,219.239952,20215.632849,7.054093,306.647384,431.370662,17.427145,56.435646,4.587745,0
7.752176,182.064705,13655.680653,6.817247,337.753776,328.217251,15.231129,92.255062,4.725507,0
7.014826,199.005255,21512.774223,7.122973,331.63159,427.649323,14.348442,66.664813,3.975357,0
7.188112,197.600514,22249.289537,7.224176,335.463073,420.806495,14.348594,67.002117,4.042936,1
7.061958,199.344257,21698.774777,7.172587,334.867851,425.786649,14.300836,65.839241,3.987822,0
7.17644,194.608393,23103.647666,7.132532,331.539953,424.869173,14.404224,66.773476,3.946768,1
7.193083,196.246304,22402.035722,7.113608,337.29441,425.059829,14.206,64.573686,3.924845,0
7.037978,196.528096,22248.097873,7.292352,331.991133,424.220935,14.306187,67.095254,3.968463,1
7.114106,194.633915,21195.195034,7.222664,335.243141,421.818418,14.574451,65.846058,3.956633,0
7.212408,195.276761,22104.555249,7.131961,330.525196,421.560437,14.172113,66.662476,4.001018,1
7.11354,194.347262,22237.064357,7.090372,330.9623,422.85041,14.200816,67.361606,4.040235,1
7.143437,196.649447,22431.873313,7.14973,332.926358,429.547888,14.432689,65.998751,3.992654,0
7.086107,195.597394,22066.425605,7.15923,333.57007,429.077227,14.414017,65.644299,3.936178,0
5.842755,202.044775,13969.261562,6.643918,290.795955,475.142956,18.189839,77.931104,4.490393,1
7.148084,195.75069,21536.898623,7.16875,332.496323,430.239252,14.258949,66.825472,3.996336,0
7.025804,194.976388,21957.739634,7.117783,334.308319,429.637067,14.571584,64.739534,3.959321,0
7.19924,198.336303,21678.371756,7.047055,336.190023,427.532363,14.501677,67.159592,3.957236,0
7.030491,192.029421,22712.761251,7.206907,331.641102,422.224498,14.184564,67.333836,4.033646,1
7.089583,194.280642,22731.002343,7.066774,331.450804,425.950217,14.338259,65.692527,3.993586,1
7.025822,147.96806,21226.665548,7.342381,387.402857,421.099917,13.996101,51.174058,4.746092,1
7.066082,194.464301,21913.072288,6.987088,335.207917,429.616443,14.355374,66.639273,4.020557,1
7.138056,199.323734,22588.976313,7.136291,329.415328,418.929703,14.282733,67.169803,3.967859,1
7.044536,194.876795,21427.005677,7.124184,333.298232,428.814231,14.117609,66.978034,3.972131,0
6.964226,212.764494,29957.191215,7.675188,321.250898,378.085546,13.127694,72.089001,3.990438,1
7.095162,195.896154,21863.89195,6.986223,331.79808,427.09379,14.384727,66.832155,4.036339,1
7.182758,194.091155,22498.429852,7.303958,333.752825,423.711705,14.224052,66.860285,4.005419,1
7.000957,196.391248,21984.046403,7.306604,331.307725,418.982797,14.360104,65.87214,3.989929,1
7.050538,194.390851,20950.992895,7.071463,334.400234,426.634279,14.355013,65.970016,3.914372,0
7.090495,195.696911,20978.831319,7.145853,336.71953,426.445773,14.359395,65.850452,3.953236,0
7.172161,196.004356,22206.915986,7.085598,338.273039,427.878977,14.206172,65.512162,3.941963,0
7.108117,194.436902,20638.194185,7.173589,334.729748,419.952262,14.243761,64.86562,3.971808,0
6.988848,198.526619,22038.895355,7.014379,332.339461,429.912165,14.287839,65.697833,3.940221,0
7.048752,193.519336,22070.325574,7.12273,325.081128,428.738708,14.115201,65.718813,4.019277,1
7.023628,194.801866,22072.577596,7.248418,334.347861,422.024473,14.324838,66.326395,3.95022,1
7.1345,194.121034,22028.422694,7.022926,335.000629,427.690987,14.560815,65.71118,4.007619,0
7.047418,195.995173,21989.713257,6.968275,336.117834,432.012551,14.340055,67.067966,3.937556,0
7.137514,196.657233,20969.202664,7.162935,335.673903,434.324207,14.554724,66.716336,3.930212,0
5.646083,219.342932,22455.695012,8.283758,386.03879,401.256292,16.650114,31.174039,3.938506,1
7.015595,195.593905,21300.188315,7.036949,335.719377,428.378577,14.281421,66.772002,3.954771,0
6.90171,173.153915,10323.957841,7.436808,376.811708,538.620787,10.401973,36.751898,3.035671,0
6.861743,195.481716,22047.774833,7.054525,329.602592,426.299239,14.2841,66.624306,3.976282,0
7.134112,192.876476,21046.130938,7.058544,335.532987,428.620476,14.423224,65.856887,3.978911,0
7.072251,196.646211,21774.217501,7.213496,336.372676,431.291802,14.266002,66.388505,3.991334,0
7.142464,194.440801,21814.198005,7.307546,331.330338,424.468408,14.0143,66.474014,3.995966,1
7.120573,198.811983,22794.37617,7.13615,334.822503,423.450605,14.351886,66.319446,4.019742,1
7.078516,197.500843,21659.325737,7.195626,334.206237,425.226217,14.598216,67.366789,4.043573,1
6.704635,230.76694,9727.761716,5.943695,223.235816,405.761571,12.826509,74.385199,3.422179,1
7.285681,197.148517,21467.944089,7.277906,329.792124,430.135505,14.185547,67.25598,4.059168,1
7.11677,196.853389,21834.611008,7.337104,334.241634,423.985635,14.406884,65.578165,3.992772,1
4.775983,196.273964,19185.791877,4.94293,329.143912,459.083557,13.37095,84.58425,4.382162,0
7.046057,195.943063,21112.073342,7.08445,333.856426,421.841548,14.069386,65.676437,3.877827,0
7.144742,196.73501,22013.544167,7.064311,330.187763,426.922402,14.347843,67.481038,4.026389,1
6.227827,169.926222,22550.492264,4.973593,297.404497,460.415386,20.789592,93.300733,4.007347,1
7.135765,195.564789,21165.385743,7.207359,335.547306,429.947962,14.633405,66.672931,3.890233,0
7.161843,195.698731,22196.327043,7.093017,337.715854,435.425011,14.119722,66.646231,4.00928,0
7.1684,193.429411,22643.825504,7.094861,334.468142,432.061859,14.194452,67.778721,4.036373,1
7.066645,196.585667,22359.380004,7.160061,325.555778,420.660585,14.48062,67.360995,4.041007,1
5.895949,187.153617,37118.255436,4.60073,253.158469,531.169101,11.410184,77.286551,3.659653,1
7.178727,198.261536,22503.991042,7.220305,330.874567,427.57623,14.543249,66.311861,3.994202,1
6.940831,197.47855,22452.636377,7.078195,335.054562,421.448339,14.197489,65.910604,3.988003,1
7.152724,196.355885,21085.430312,7.074447,332.247731,428.757372,14.476537,66.807922,4.019299,0
7.041117,195.468126,23074.998344,7.094054,334.552112,423.776385,14.248253,66.402022,4.007095,1
7.117832,196.662164,21367.282592,7.155703,334.144149,420.048853,14.310033,65.692711,3.991887,0
7.021098,193.561953,21003.30491,7.01096,334.73349,424.225972,14.397166,67.058363,3.898384,0
7.093517,194.469922,21908.513184,7.064929,338.042533,425.175885,14.740862,64.931241,3.990448,0
7.187105,196.060092,21481.298834,7.058094,335.012407,425.331009,14.330111,65.487129,3.997473,0
7.114134,196.632142,22133.819898,7.115652,332.559509,431.349541,14.168473,67.951238,4.056092,1
8.458815,225.712359,15677.970686,6.410043,314.331408,636.257755,10.61371,71.96339,3.507709,0
7.020786,197.569356,21704.200855,7.122052,333.377242,421.889157,14.328387,65.063056,3.961517,0
6.972702,197.327517,22020.327996,7.241836,334.528557,434.36104,14.496814,66.94786,3.987027,0
7.035564,194.717599,21818.06651,7.143204,335.463867,426.232184,14.189925,67.828046,3.975402,1
7.098641,198.963283,21553.953527,7.077773,334.105358,424.40976,14.469725,66.677401,3.953617,0
7.122176,197.827677,22163.141463,7.197303,333.411084,429.401539,14.438452,66.02294,3.989661,0
7.249617,199.261482,21589.796588,7.093462,334.334958,425.339832,14.34007,65.996217,3.950473,0
7.001146,196.223888,21841.024319,7.099727,334.698482,431.088673,14.140622,67.152911,3.967043,0
7.130927,195.240616,21467.891916,7.15688,333.87375,431.638863,14.009948,65.620534,3.936471,0
7.04643,192.855519,21436.043325,7.08549,332.775748,429.841081,14.082972,66.050219,3.919755,0
7.076979,195.182729,21767.23793,7.134977,334.651446,427.028942,14.373822,66.929055,3.992796,1
7.700362,220.571796,29432.208251,6.356294,322.750328,444.957618,13.027439,77.829802,3.786487,0
6.950787,201.805491,21709.647709,6.120771,352.303771,417.184446,19.683493,49.236809,3.997975,0
7.143937,197.687736,22543.728691,7.030974,331.795797,419.209078,14.308762,66.661507,4.056598,1
7.061078,194.364375,22660.380246,7.153022,329.255273,424.534416,14.044228,66.400981,3.989343,1
7.190394,196.654656,22341.379601,7.266435,331.038392,421.566129,14.218922,68.420646,3.923995,1
7.13199,196.212621,22499.807965,7.208319,332.422536,420.006669,14.264439,68.250849,3.976647,1
7.038953,194.615668,21864.934812,7.208481,335.134336,425.74901,14.231699,66.335142,3.960281,0
6.973,197.347647,21537.957813,7.221132,334.044927,433.027585,14.402509,67.653882,4.012093,0
7.03398,197.015538,21823.729329,7.108224,337.313551,423.311835,14.186176,66.242767,4.100132,1
7.097685,195.702262,22492.053784,7.233626,334.943109,424.476778,14.362385,66.304063,4.023485,1
7.045434,193.400248,21952.031279,7.251206,332.930856,427.352733,14.355181,66.505497,4.008109,0
6.995205,198.123237,22249.978088,7.2754,332.863139,424.032774,14.136082,67.333826,4.020238,1
7.195654,198.531306,22505.406911,7.164862,331.572626,436.277995,14.073489,67.132495,4.025825,1
7.018054,196.644495,21735.351263,7.132527,333.228258,429.693143,14.2854,66.505652,4.045903,0
7.139226,198.009378,22223.690864,7.220313,334.836705,428.090931,14.194757,67.145315,4.006065,1
7.253051,194.395257,22363.891114,7.072384,333.923672,418.66754,14.209408,65.71092,3.959028,1
7.058599,195.879733,22269.680258,7.047772,334.964714,428.701327,14.498234,65.684259,3.981709,0
7.116134,196.965267,22709.9819,7.158442,332.942031,422.423834,14.108809,66.808933,3.962694,1
7.15259,195.001558,22262.325179,7.110094,334.139784,427.77066,14.445318,66.963834,3.919353,1
7.15444,194.985668,20943.190998,7.165862,335.00135,423.957391,14.068788,66.65934,3.915406,0
7.212366,193.503873,21735.392028,7.241696,334.623892,427.166311,14.453961,65.590313,3.965067,1
7.02429,196.34982,21027.024383,7.002687,334.031607,423.101517,14.370095,64.981086,4.016682,0
7.093164,195.369903,20969.93252,7.177385,334.186872,426.978342,14.232245,65.512605,3.997352,0
7.089144,194.374808,22431.85063,7.240069,336.524837,424.623366,14.411735,66.680036,3.946273,1
7.058472,197.983488,21727.614202,7.06998,333.431545,422.522439,14.239799,66.593999,4.01528,0
6.969656,197.710461,22200.553805,7.13887,334.443068,421.219904,14.360369,66.521268,3.97476,1
7.008154,198.250815,21648.909708,6.933898,333.291698,423.376386,14.189196,66.030055,3.958573,0
5.564342,256.20883,11245.735767,7.212254,329.338366,369.555513,15.640053,51.150344,2.285988,1
7.237939,196.089578,21468.587726,6.97882,335.435492,427.649546,14.514708,66.510387,3.957706,0
7.147663,194.751475,21227.821927,7.117476,334.407601,424.629333,14.442024,67.327113,3.913467,0
7.232244,195.536072,22484.031822,7.205494,332.939238,416.461546,14.012952,65.908689,3.951774,1
7.035345,200.741704,23910.877312,7.053775,331.68263,429.091674,14.128073,66.455906,4.081891,1
8.237143,190.059695,20015.398106,8.385217,356.091761,377.682097,17.740944,37.713878,4.939109,0
7.06698,194.470926,21238.612029,7.068115,334.2359,423.933297,14.260371,66.142573,3.951972,0
7.096455,196.87491,21685.277821,7.041615,332.665726,417.186769,14.298947,66.782136,3.972881,0
6.96835,198.484322,22054.670736,7.343528,332.696131,425.986297,14.383914,68.759147,3.962398,1
7.029202,196.264266,21873.734627,7.178498,335.202985,427.700893,14.381015,64.859138,3.94574,0
8.247958,195.539536,28327.167338,5.378286,281.229853,588.699193,18.076938,70.793036,4.723231,1
7.097862,199.066917,21095.915526,7.13251,332.840089,428.791782,14.609399,66.089674,3.917337,0
7.135428,197.612057,22443.930318,7.21426,333.604044,418.225594,14.250145,67.214369,4.023419,1
9.172625,165.687548,11319.106232,6.618853,372.554713,420.42911,13.353259,72.974051,3.686395,0
6.920449,196.319401,39251.182129,8.493784,317.382315,487.504368,14.697845,41.753727,4.498818,1
9.250492,184.442011,22749.178352,7.401663,375.008324,436.493762,15.402961,44.78897,3.996339,0
7.172475,193.691246,22863.341823,7.263048,334.13024,430.881515,14.609428,66.661548,4.020832,1
6.617862,174.280566,33245.630587,7.022187,326.16848,479.920538,15.918912,60.339794,4.601351,1
7.034179,194.904892,22585.977852,7.287701,328.26135,430.968363,14.315551,67.821293,3.961342,1
5.940476,175.63773,17177.071037,10.410835,307.997631,402.887309,15.152004,74.354423,3.99797,1
7.109998,192.623462,22226.85773,7.145873,336.273347,423.563993,14.513553,66.38968,3.959708,0
7.08921,196.457895,21694.26154,7.26587,332.183517,424.789373,14.365662,67.633202,3.959386,1
7.121801,197.315783,23297.232734,7.17327,332.687681,424.681801,14.407554,65.505311,4.02705,1
7.071719,194.450433,22611.123157,7.174064,331.019918,422.223945,14.35747,66.603436,3.996486,1
7.066541,196.928772,22556.765756,7.131235,329.146834,424.800815,14.090073,67.343291,4.042189,1
7.058149,195.545124,21359.39231,7.02944,335.446704,423.58159,14.499325,66.962615,3.952687,0
7.703357,211.344687,12861.946542,9.245306,347.630834,598.662877,10.542342,91.118698,4.732125,0
7.22665,197.847803,23018.01291,7.252632,330.86055,420.95349,14.143067,67.649587,3.985036,1
6.997049,195.730566,21836.299118,7.151664,335.084442,422.235195,14.232255,66.78962,3.868783,0
7.069416,192.944935,21618.521191,7.275623,329.682167,426.268962,14.128018,67.472487,3.991177,1
9.271579,274.021391,38886.387679,8.045991,244.086257,504.616793,15.981068,62.320048,3.549608,1
7.067933,196.168031,21809.002506,7.123828,332.694365,430.555923,14.504778,66.787338,3.902928,0
7.141964,196.00496,21690.852113,7.115937,333.709958,430.541311,14.32149,66.039097,4.029039,1
7.077873,197.501626,22040.441505,7.149548,334.764476,427.25716,14.310754,66.452605,4.002021,1
7.196309,196.563722,21591.073235,7.139099,333.066901,428.733369,14.267639,67.636514,4.047586,1
7.286297,194.971035,21912.075093,7.082647,334.409682,424.137563,14.510698,67.394629,4.039173,1
7.203037,195.05238,21993.266528,6.993175,331.288798,424.668113,14.528135,65.714987,3.954634,0
7.105949,196.723745,23457.703277,7.293288,330.969662,421.675775,14.233427,65.493058,3.959021,1
7.135134,197.199214,22714.925113,7.13184,329.307352,419.038529,14.168547,65.462276,4.020215,1
4.855588,145.79037,14905.255912,9.829675,392.667482,459.288037,10.44659,52.289484,4.697153,1
7.049299,195.260519,21222.519697,7.002481,333.048056,432.555783,14.653568,65.547351,3.924674,0
7.058781,196.269378,22103.830557,6.963938,335.820273,428.06992,14.265564,64.960809,3.932598,0
6.98132,197.039703,21433.036624,7.098625,334.471904,425.549462,14.365994,66.915667,3.945607,0
7.957114,199.107505,20425.76649,8.171995,380.078173,333.156538,14.53785,62.246358,3.729873,0
7.074475,197.738725,21512.201635,7.078362,331.042064,431.963663,14.474451,65.832869,4.007765,0
7.073538,195.161132,21137.605343,7.01975,334.316157,424.325722,14.416799,66.810217,3.918514,0
7.020736,194.835096,22275.261905,7.03264,332.731301,428.294739,14.544094,65.874693,3.976946,0
6.915943,197.295276,21260.363331,7.052992,335.604311,429.922273,14.19906,65.499728,4.008759,0
7.046482,194.459632,22514.962337,7.159936,335.279816,430.474684,14.376229,65.547666,3.924161,0
7.103002,197.145481,21654.310489,7.105702,331.977783,426.184291,14.206667,65.049299,3.968375,0
7.091843,198.999825,22168.011031,6.978604,327.185075,428.688015,14.010844,67.606259,4.03516,1
7.011433,194.435656,22509.06216,7.159306,332.417965,434.281287,14.072546,67.327414,3.970697,1
7.080925,190.990703,22215.881803,7.200065,334.550991,423.442339,14.357213,66.68403,3.983535,1
7.322828,230.342901,24682.124546,7.42558,323.832737,349.313213,9.497937,50.660145,3.981969,1
9.221956,151.454831,26502.595774,8.097194,294.192754,541.601438,13.951753,39.572407,4.294252,1
7.245243,196.008877,21087.311201,7.169527,333.228698,435.475214,14.496766,65.65523,3.970153,0
7.131861,195.250902,21004.834862,7.189777,337.235231,427.74404,14.444573,65.789069,3.948492,0
4.083595,201.938643,20555.965489,1.920271,341.597153,435.511529,12.226676,69.289779,2.974871,1
6.969518,194.629782,22675.849975,7.112681,333.050942,430.144607,14.049623,65.89988,3.934651,1
7.020919,197.183223,22948.902656,7.046573,333.968377,427.525564,14.445449,66.564285,3.994329,1
7.177793,201.190295,22168.653835,7.182202,332.470042,419.072548,14.246825,67.235268,3.965376,1
6.986989,195.309621,22436.683136,7.097406,333.798908,421.08645,14.304166,66.54194,3.96902,1
7.236617,198.996161,22044.481092,7.268779,329.057156,424.506006,14.322084,68.030809,3.953568,1
7.190885,193.260235,21477.825634,7.190094,332.271018,433.621893,14.479472,65.980024,3.991447,0
7.084714,196.20516,22122.377457,7.157792,330.860776,432.419838,14.137351,67.696314,3.983287,1
7.210822,196.069629,23377.221576,7.331273,331.718575,427.340022,14.321777,66.764938,4.009296,1
7.196334,192.458177,22116.593905,7.032076,330.989841,425.259288,14.513785,67.197109,3.971201,0
7.016615,196.99792,21910.285811,7.065278,334.549877,422.520014,14.270024,65.243071,3.977633,0
7.12304,198.500475,22486.700691,7.192257,333.978171,423.742158,14.357717,66.480956,3.996187,1
7.172083,194.566272,21528.172504,6.994012,331.500079,424.494,14.312494,66.563188,3.963886,0
7.041602,192.870862,21080.408196,7.172521,335.715173,429.088369,14.25813,67.706106,3.974279,0
7.231672,195.559181,22385.14672,7.233621,329.598188,427.969035,14.160143,66.034001,3.976159,1
7.112707,195.071545,22038.149882,7.165932,331.931358,427.860571,14.451959,66.756882,3.956535,1
7.356057,234.782302,31409.063979,7.39553,283.509583,428.753104,22.166321,87.399122,4.549917,1
7.020619,195.952084,22096.501358,7.18392,331.388628,422.394104,14.406238,65.464848,3.999185,1
9.917092,196.603746,37215.226835,7.408018,247.934855,522.548553,5.51204,77.830816,3.393325,1
6.97454,194.235109,21486.817816,7.051834,331.7557,433.810811,14.497198,67.153117,3.907131,0
6.964059,198.243591,21547.83059,7.143919,334.743657,425.536323,14.65762,67.663349,3.914329,0
6.907349,197.90324,22579.599223,7.284216,332.327224,430.486659,14.510005,66.624361,4.029814,0
7.177304,196.63845,22518.973329,7.271817,334.719886,427.465271,14.110827,65.63849,4.019861,1
7.116136,196.710058,21701.95196,7.113674,331.793663,426.206439,13.967913,65.702455,4.023288,1
7.146138,194.901316,21858.077234,7.291128,332.476112,419.603876,14.460613,66.761768,3.989986,1
7.092762,194.646073,22086.4285,7.112327,329.848974,427.14125,14.353199,67.961758,4.006835,1
5.088213,159.962612,39125.209196,6.055623,375.619186,400.155324,20.1896,68.688694,2.600619,0
7.59567,207.11547,13486.142191,6.192663,328.209566,452.445746,14.81063,88.020365,3.403393,0
7.809632,100.457615,12013.550629,5.212315,247.200826,605.220124,9.611349,66.084174,2.447444,0
7.060221,197.455919,22574.56797,7.046883,331.531705,431.550002,14.32055,65.701926,4.003336,1
7.023413,195.123734,21402.561557,7.051571,334.33919,431.050713,14.463799,65.95737,4.048459,0
6.682097,228.303186,7705.298605,5.94735,363.536984,254.392306,13.14044,64.783954,3.449829,1
7.093809,196.874868,21901.623694,7.192177,337.562246,422.52132,14.747565,66.436474,3.894882,0
7.207675,198.993329,22420.365112,7.201119,331.76578,429.306403,14.230445,67.870919,3.96189,1
7.046671,194.62243,21465.443053,7.036207,333.665627,425.80476,14.488635,66.294232,4.03463,0
7.255898,198.359101,21889.377353,7.037179,336.140886,432.43337,14.41238,65.748419,3.973368,0
6.397905,249.969243,22057.051786,4.892717,375.494474,334.26988,14.150363,97.030457,3.958543,1
7.072774,196.327527,21765.479696,6.995406,336.385392,426.316913,14.346513,66.160198,3.970743,0
10.386133,200.891192,17982.387256,5.845502,338.999274,336.279707,14.319411,62.156686,4.921341,0
7.096309,194.647176,22382.287765,6.985336,333.228114,426.230992,14.280948,66.753348,3.926872,1
7.163425,197.715853,23136.267915,7.096957,332.244078,425.35055,14.255232,66.065829,4.03501,1
6.626012,112.299485,25839.894104,7.658747,312.247043,327.248079,19.409147,85.785103,4.194313,0
7.28287,202.041586,23049.639898,7.311046,337.072965,417.710982,14.584277,65.047722,3.966196,1
7.14513,193.408935,21676.117939,7.090706,335.416717,428.594132,14.141077,67.166788,3.976189,0
7.170486,197.345053,21934.778126,7.227068,332.127411,430.270533,14.318303,66.172471,3.913489,0
7.077135,197.668974,22019.049262,7.273458,328.388166,429.752292,14.461631,65.88388,3.956043,1
7.168771,195.716514,21846.794808,7.131289,332.502259,424.713723,14.394,66.920518,3.959655,1
6.982149,193.470724,21375.421103,7.022695,331.03927,433.405031,14.533372,67.037911,3.927466,0
6.624806,204.342928,21443.264749,5.980402,312.315229,412.996763,11.965107,62.520333,2.840911,0
6.975209,175.421039,35701.15532,5.494254,290.052802,401.058802,10.285283,66.420579,5.256484,1
7.036161,197.010469,22531.518861,7.069527,332.225285,424.794943,14.466706,65.931954,4.045994,1
7.139873,196.220084,21763.905669,7.083661,335.779058,430.123792,14.439994,66.74128,3.914972,0
7.52898,225.340986,8129.734919,6.305472,309.231247,379.339293,16.961944,64.265787,3.64441,0
6.984018,192.930062,22176.995476,7.075592,331.069205,431.540253,14.034625,66.343486,3.99587,1
7.399811,229.776265,28630.954416,8.711706,302.315759,437.366909,11.927552,78.576441,3.803724,0
8.746986,148.393724,22174.781141,5.459172,369.369881,407.380825,15.892079,72.164019,4.763731,0
6.997903,196.898714,21959.291191,7.000605,334.843574,429.699551,14.225572,66.258336,4.024694,0
7.133849,195.626665,22522.362665,7.29437,336.37388,417.706825,14.371301,67.450712,3.94081,1
9.454119,224.817132,21379.963927,5.407692,227.665635,431.613001,15.772334,52.033845,4.058626,1
7.107959,196.102536,21383.339961,7.05143,334.681657,427.895828,14.236008,66.048533,3.954559,0
4.497585,193.936515,27768.38287,6.906348,330.4307,556.032922,22.618411,81.265816,4.965739,0
6.983852,196.321261,21307.064009,7.087832,334.049846,423.796822,14.360478,66.848317,3.917067,0
7.233579,197.701283,21989.718622,7.207894,331.806337,426.53727,14.33643,66.795585,4.062152,1
7.093656,196.136442,23261.468721,7.148044,334.048042,424.309691,14.204437,67.082304,3.966575,1
7.080661,197.696162,22521.294422,7.263814,334.728887,423.556327,14.430919,66.431567,4.081079,1
7.110233,196.2974,22431.435083,7.071537,330.889986,424.421767,14.181179,66.446989,3.989682,1
7.099166,194.731518,21279.029016,7.04754,334.309058,432.987124,14.708822,65.724053,3.962641,0
7.168079,192.722875,22415.601478,7.175369,331.309807,427.740739,14.264868,66.500915,3.990708,1
7.138054,196.051792,23266.517226,7.078809,329.750686,426.239332,14.110995,66.59229,3.99337,1
7.147004,196.094746,22636.055429,7.194134,332.664165,420.590113,14.455417,68.438462,4.001997,1
7.146643,199.335614,21696.506652,7.135261,335.789074,435.107559,14.407012,66.235962,3.924865,0
7.111388,194.963931,22851.020693,7.348562,334.218475,425.537149,14.305386,66.733137,3.92049,1
7.10961,195.689474,21879.773521,7.174038,333.96505,433.483184,14.096435,65.328519,4.043863,1
7.011662,195.984627,21346.881186,7.020094,331.991413,430.087499,14.320657,66.091277,3.882748,0
4.24989,168.572146,16073.67062,5.360896,261.267707,449.051516,11.34921,86.946897,4.116348,0
6.999534,197.638072,21331.790655,7.074711,334.186704,425.126709,14.29391,66.904314,3.99978,0
7.047478,198.777615,22572.426297,7.221125,332.177134,418.23484,14.3331,66.069402,3.995257,1
7.056923,197.940001,23184.24392,7.290034,330.380322,431.814816,14.530184,66.594215,3.939843,1
7.119473,195.707797,22679.778005,7.057207,334.246066,424.934552,14.616231,67.189404,3.952173,0
6.879959,163.593339,44586.812651,2.741712,219.148935,554.045105,16.521942,67.53326,5.688207,1
7.04805,195.984621,22721.130255,7.287314,335.631067,426.758113,13.87735,67.129386,4.003632,1
10.026224,94.091307,25510.097298,6.614114,385.402659,388.467266,11.887161,69.273979,3.736228,1
7.063275,195.107952,21478.5291,7.066351,331.69351,421.990675,14.469623,65.824203,3.945915,0
7.216274,195.495178,22229.560722,7.045211,332.778746,421.402286,14.381295,65.844381,4.007852,1
7.092183,195.271281,21949.572542,7.229722,333.925752,426.722616,14.417779,67.161098,4.053481,1
7.017981,195.001001,22475.098172,7.065123,333.015646,421.598813,14.204407,66.136199,3.971813,1
6.898553,197.575402,21831.006533,7.199621,332.580609,424.812437,14.49851,66.165933,3.939373,0
7.094032,199.334508,22332.067348,7.117694,337.306234,429.619257,14.429566,66.335654,3.874657,0
3.344589,156.479927,55334.702799,8.530102,371.14777,485.631148,16.98061,69.62249,2.575141,0
7.083621,198.206239,21908.709656,7.265234,330.606109,421.726234,14.352322,65.603812,3.944837,1
7.176727,199.452418,22122.978519,7.07116,329.912145,421.097049,14.42155,67.20163,3.968918,1
6.97099,195.918423,21830.402153,7.009754,335.286638,428.474493,14.461131,65.495747,3.914212,0
6.833177,194.886225,21701.666302,7.137537,332.09102,435.940761,14.607301,65.732828,3.924871,0
7.163314,195.436872,23232.088225,7.209018,330.025148,424.918431,14.194868,67.38343,4.000774,1
7.103825,200.299842,21897.538855,6.979245,335.446458,427.818057,14.396604,65.225562,3.983925,0
7.149501,193.125986,21763.55482,7.077625,332.350981,429.260622,14.264738,66.56334,4.026307,1
6.936765,194.102713,22245.669023,7.053254,334.290005,427.705752,14.240352,67.683663,3.893659,0
7.085348,199.26607,22038.825043,7.201764,329.003621,425.834357,14.312797,66.67761,3.912197,1
7.855906,209.751802,19850.182892,8.038872,300.292954,368.437561,18.525207,57.238874,4.15189,0
7.060708,195.313485,21574.559483,7.014466,333.274034,431.706168,14.366753,65.638123,3.931393,0
7.035627,195.289189,22020.535362,7.092902,330.895814,422.371964,14.268545,65.572108,3.953142,0
7.054934,195.769932,21252.71804,7.106907,335.001573,427.016191,14.470464,64.641664,3.983087,0
7.018811,194.643559,21598.553209,7.202295,337.060923,427.792837,14.525399,66.655139,3.945077,0
7.167201,195.104932,21468.214107,7.213706,333.870616,426.546059,14.313939,66.72569,3.980192,0
7.094831,139.906866,18975.643495,7.571951,423.045974,528.266523,18.556177,68.648582,3.62846,0
7.047517,195.554949,22961.766113,7.290732,333.980228,431.082114,14.05005,67.308497,4.03789,1
7.134489,195.803715,21934.211963,7.08889,333.97394,427.216944,14.023592,66.416241,3.954187,0
7.190533,195.934983,22743.937705,7.224336,335.621568,421.704809,14.393426,66.350283,4.074661,1
6.942703,194.274639,22690.365375,7.063023,335.24509,426.273867,14.592141,66.898514,3.995184,0
7.220407,195.408051,22363.821117,7.367477,332.081783,426.897416,14.447434,67.889796,3.967053,1
7.020544,196.772291,21342.45455,7.175809,333.905681,423.447462,14.23018,65.630322,3.953692,0
8.245187,199.305774,13909.479065,9.369642,406.047609,423.736784,14.801329,97.277004,4.125732,0
7.14046,192.833061,22553.295391,7.179556,328.95186,431.627595,14.583978,67.27611,4.011207,1
7.029195,199.600949,22041.553194,7.023765,332.228289,431.781366,14.500781,64.4147,4.026753,1
7.184611,196.650051,22293.897007,7.068669,332.591813,428.125919,14.528861,65.516227,3.997167,0
7.000523,219.44264,26012.130278,6.280887,395.241329,483.319881,19.538635,46.861384,4.333689,1
7.095777,195.128517,21920.662314,7.114124,331.898685,436.38345,14.540856,65.760544,3.900277,0
7.111666,196.395491,20969.215508,6.98788,332.442553,420.771504,14.561569,67.449878,3.945718,0
7.166275,193.195509,22690.642628,7.117142,335.328726,424.414927,14.382741,66.035444,3.979637,1
7.095466,196.519858,22292.048073,7.218438,334.083615,424.869913,14.03339,66.806397,3.990307,1
7.071453,194.800548,21028.853266,7.119743,335.014025,420.195055,14.743843,66.531491,3.850043,0
7.21229,197.646466,21893.16076,7.173031,333.362655,429.68349,14.214792,65.742584,3.879353,0
7.126943,194.821699,21866.283587,7.075717,335.629583,425.56197,14.549929,66.496462,3.962005,0
7.053594,194.51275,21246.547188,7.090961,333.251989,423.923424,14.094583,67.408331,3.920956,0
7.161458,196.266569,22093.960908,7.082275,332.501946,417.950103,14.333343,67.474861,3.998519,1
7.163394,194.149301,22803.657558,7.082176,331.235997,422.007305,14.455657,66.438912,4.023623,1
7.061815,196.35629,22072.370437,7.182214,332.160733,434.519672,14.251858,66.973017,4.014236,1
10.490744,221.02926,32092.058384,12.6269,333.319882,403.824003,10.663801,87.993206,2.887023,1
7.044921,195.673541,21280.010926,7.087654,334.887141,425.085616,14.398329,66.831498,3.925832,0
7.198883,195.182785,21701.073354,7.126032,333.761644,426.853705,14.233524,66.793403,3.961608,0
7.117731,194.555574,23090.33785,7.224143,334.170723,424.553648,14.002073,67.236256,3.985509,1
7.133925,198.885786,22169.472562,7.12366,334.094107,422.928807,14.19723,66.503676,3.969267,1
7.156732,194.023357,22005.825964,7.097075,331.341826,428.638991,14.348405,68.16081,4.070181,1
5.369584,170.835192,27199.641993,8.065886,376.055637,401.833036,14.081981,81.740225,3.357484,0
7.095573,195.022401,20621.117175,7.159936,334.19329,423.247633,14.753081,66.716393,3.894005,0
7.104569,196.828663,22385.974818,7.11596,333.423208,429.85641,14.394932,65.944979,3.899835,0
7.050768,194.577929,22981.437329,7.316678,338.088798,426.324971,14.239571,65.729238,3.891023,1
7.070574,199.333161,21402.289181,7.101035,330.888216,426.892964,14.31021,65.564851,3.962347,0
8.927078,241.875105,22821.254377,8.549738,367.975558,380.1972,10.859287,75.857068,4.601861,0
7.090886,198.476332,21897.115323,7.106262,332.903257,427.580663,14.393517,66.418192,3.93297,0
7.151044,195.422646,22671.309009,7.179396,335.381099,431.236462,14.327287,67.713262,3.997029,1
7.408985,204.96175,9566.12227,6.505923,311.452663,504.145994,11.532144,81.106938,3.772421,0
6.641501,198.884409,27867.486757,7.327729,318.408397,573.723762,13.19172,81.551114,4.694311,0
7.109612,194.689427,21473.691675,7.105601,335.166204,423.279293,14.554249,65.418985,3.94965,0
7.056519,198.390793,22301.973007,7.163706,332.937135,421.203528,14.231689,64.94816,3.956675,1
9.485833,218.738236,15357.833373,8.534458,315.831396,429.622212,15.621139,64.826028,3.22113,1
6.995072,196.693211,22644.323953,7.204361,335.087368,428.721447,14.512392,66.992793,4.036686,1
7.181195,195.939143,21960.901523,6.981171,333.445018,433.768053,14.267,66.745062,3.980758,1
7.03801,195.669949,22434.546931,7.194745,333.775426,430.962003,14.243954,66.497227,4.018123,1
7.292132,195.00749,21916.965401,7.096531,332.886163,426.190796,14.64123,66.632678,3.970855,0
5.966,194.796221,17350.058531,4.466577,404.609982,406.806302,11.539987,48.173359,4.177139,1
7.079449,193.385464,21277.010424,7.196271,336.379754,423.559989,14.22087,66.472913,3.945861,0
6.970581,198.05209,21957.301756,7.122111,335.441259,437.615709,14.322084,65.893764,3.948475,0
7.117668,196.204483,23213.923506,7.225804,327.956251,423.614869,14.348522,67.306132,3.995238,1
7.012168,197.301917,22010.732636,7.207855,329.719398,424.830826,14.328597,65.163649,4.007541,1
7.078033,195.865383,22678.827633,7.100659,331.155403,418.564373,14.066054,67.137797,3.964695,1
7.143942,153.236364,11553.039281,8.444687,329.404457,278.483266,11.266886,81.718413,3.79284,0
7.16767,196.342827,22502.92842,7.341847,333.3205,420.143171,14.485333,65.594015,3.980081,1
4.704698,160.211822,5128.457646,8.283069,357.731077,344.69374,14.219532,34.288413,4.109925,1
7.284535,197.152924,22602.17508,7.143759,329.276995,427.645926,14.142867,66.706838,3.972904,1
7.085722,199.279903,22139.287301,7.107174,336.464582,432.020151,14.508085,65.750523,3.98344,0
7.030056,196.41693,22247.94108,7.080468,337.501005,417.572704,14.319008,67.153071,4.015085,1
7.090642,195.794398,21823.907306,7.216022,333.367371,426.046172,14.621538,66.603213,3.958855,0
7.098149,195.388134,22497.401421,7.130188,335.017459,427.22896,14.238146,67.353267,3.935325,0
7.095829,195.928978,21895.866685,7.19849,334.337904,427.60399,14.1528,66.417857,3.942143,1
7.07494,193.637391,21588.843863,7.00549,335.440299,433.079092,14.247464,65.624099,3.972721,0
8.040144,224.863482,6879.764653,8.136931,418.95501,360.957679,12.405913,73.21799,3.98646,1
7.109803,192.765473,21409.404503,6.956475,334.594028,430.824964,14.394736,66.440157,3.921821,0
7.069756,197.722267,21413.007667,7.086163,331.481825,425.166677,14.371097,65.360977,3.937073,0
7.062579,198.008648,21653.623056,7.108465,332.828078,427.708058,14.30514,65.928289,4.016579,0
7.273681,195.227533,21663.314842,7.177883,331.530449,419.37285,14.033593,66.40805,3.975858,0
7.893132,201.43325,20526.049705,5.628776,299.018236,303.878793,15.254653,71.542306,3.302212,0
7.182563,198.627918,21403.495285,7.20376,332.054103,430.610392,14.625047,66.575368,3.966544,0
6.933507,197.653312,22487.883826,7.205823,334.795283,425.059943,14.685787,67.470628,3.908199,0
7.142237,195.556402,22457.834642,7.111149,329.332188,426.024072,14.17865,66.284294,3.928129,1
7.07996,197.434719,22755.15833,7.196585,332.65187,424.006017,14.294941,66.721354,3.893448,1
7.292505,195.480746,21938.79397,7.363569,332.796869,428.288816,14.494222,66.902768,4.017727,1
7.10064,195.737493,22416.696031,7.0958,330.252174,425.30476,14.155172,66.521606,3.975261,1
6.867001,184.248496,14464.115547,6.759352,371.283819,497.703775,14.782861,73.433479,3.484121,0
7.033927,194.445873,21952.30008,7.174997,332.162267,431.849811,14.225305,67.099977,3.902184,0
10.433291,117.79123,22326.892046,8.161505,307.707509,412.986834,12.890709,65.733478,5.057311,0
7.005281,197.599729,20993.656674,7.12545,335.706864,431.102338,14.179757,64.608669,4.008917,0
5.290004,174.738423,28697.004827,8.60679,317.016465,480.680392,13.748302,52.475868,3.532322,0
7.116839,195.875503,22222.486287,6.990938,331.773038,428.635506,14.236911,66.979874,3.908458,1
7.062559,197.086931,21943.570344,7.308275,333.917502,423.054785,14.413018,66.477702,3.921307,1
7.030757,195.491216,21465.328611,7.017916,333.118375,420.47303,14.389488,66.444205,3.9471,0
4.961353,166.259962,22229.23009,9.922078,295.131831,449.147191,12.001547,63.427979,3.902838,0
7.172426,195.885432,21565.489332,7.177765,336.542466,415.775,14.082719,67.207453,3.980129,1
6.020654,197.46909,10529.310299,5.305352,416.495213,412.011733,9.909315,59.167002,5.217131,0
7.056086,194.127599,21012.354273,7.026341,334.178679,428.991951,14.099103,65.874752,3.898234,0
7.025335,193.61546,21843.031528,6.986053,334.622521,431.469278,14.080569,66.1342,3.919728,0
7.001406,195.512301,22001.880408,7.16949,332.788082,424.087386,14.295983,66.414854,3.981193,0
6.37695,170.22708,16079.36125,5.433802,331.856892,311.7729,15.703707,54.013112,4.284387,0
7.18278,194.512884,22996.003613,7.376126,334.43783,422.997741,14.39459,67.773082,4.042477,1
7.126349,197.685737,22660.687176,7.068881,335.216847,423.308372,14.522765,67.196202,3.960034,0
6.931244,207.588953,24359.470414,7.222004,313.819713,477.062975,16.495092,75.041914,4.897957,0
6.953483,194.885246,21225.433048,7.055732,332.683107,434.341468,14.215591,66.658947,3.957874,0
6.976288,193.43808,20842.852899,6.999164,335.997716,426.688744,14.320844,66.66188,3.980566,0
7.032578,197.461444,21593.617677,7.005246,334.074156,430.801355,14.307779,66.362208,3.991737,0
6.959416,196.922841,21887.929359,7.168416,335.59379,428.303885,14.214636,65.235809,4.011678,0
6.945954,193.318257,22835.14027,7.187801,334.015151,424.223053,14.363419,66.288273,3.967469,1
7.040821,195.276716,21470.677252,7.162743,332.577667,424.171306,14.38293,66.754861,3.922079,1
7.077104,196.022743,21373.053043,7.136656,326.852089,425.042258,14.251201,66.654744,3.996849,1
7.114894,195.04825,22317.672036,7.158416,330.014805,429.94354,14.166661,65.699536,3.97904,1
7.07823,193.829364,23038.938219,7.198979,335.308743,431.693802,14.261706,66.450466,4.051685,1
8.157518,236.34444,27931.208402,6.203676,325.323955,511.587664,13.381575,80.686958,4.469431,0
7.194311,195.185263,22546.452282,7.219628,330.601118,429.018313,14.102988,66.364437,3.999645,1
7.035795,195.252857,20983.586792,7.156218,331.898341,425.197603,14.312823,67.130325,3.951016,0
7.14805,195.377217,22875.047166,7.212039,327.925446,432.073302,14.470711,66.458435,3.952537,1
6.109073,191.755571,26853.949493,9.064613,312.201984,375.547362,15.514033,73.789683,4.881101,0
7.027681,196.128334,21278.539763,7.017041,335.829961,422.690635,14.301088,65.470629,3.893949,0
7.084466,194.258535,22915.419824,7.181706,330.373885,426.436778,14.339624,69.332441,3.924418,1
7.031505,197.159621,21606.475848,7.201345,332.932599,431.710095,14.307461,66.646128,4.00038,0
6.894473,192.829844,21526.597779,7.209192,335.252555,427.813569,14.448506,66.80776,4.0184,0
7.096569,195.614162,21889.68092,7.25926,331.468606,428.134998,13.930837,67.618469,4.038675,1
7.138082,198.357798,22934.896012,7.131538,330.89908,422.819553,14.362945,66.488929,3.92002,1
7.129504,195.338796,21256.758094,7.131668,331.926622,419.124227,14.142842,64.883996,3.962561,0
7.159004,194.592113,21923.081415,7.172762,336.008706,426.178275,14.128758,67.501972,4.026872,1
5.228506,191.663797,24855.907781,7.016078,337.270897,343.349235,15.922648,77.3153,3.188805,0
6.958659,196.695914,21317.793636,7.21158,335.07129,429.585278,14.393761,67.584733,4.00551,0
7.051428,198.822949,21571.46803,7.140653,332.940713,424.16154,14.390335,66.290389,3.902033,0
8.639541,168.613967,7013.211787,8.451601,355.213897,419.788898,17.929395,33.641539,4.192932,0
7.133895,197.385025,22141.52842,7.276346,331.107941,421.884381,14.193193,67.300755,3.998022,1
7.122512,198.394069,22472.533486,7.151186,331.406535,428.537722,14.158262,67.397937,4.056382,1
7.163446,196.964656,22597.459087,6.91468,332.710118,422.493132,14.315505,66.171914,3.949058,1
7.248991,184.071034,33123.44298,7.186173,322.365661,345.356576,15.164134,68.847544,4.25598,0
7.021462,199.479697,23151.045702,7.159481,329.550312,417.562402,14.137011,66.49473,3.982777,1
7.019761,196.671864,21335.056066,7.120445,333.089148,424.268751,14.483686,66.686202,3.94484,0
7.131577,197.445991,21769.007038,7.129723,332.888869,429.182482,14.123534,67.202488,3.977675,1
7.104306,197.630394,22053.003753,7.157241,328.530459,425.272571,14.487739,66.657099,4.038018,1
7.001211,197.064137,21418.517041,7.206631,332.086774,423.76763,14.608591,66.643867,3.876552,0
8.310029,212.698276,40936.153391,7.703375,301.254422,365.431212,12.971869,70.485251,4.775785,0
7.121137,195.827564,23340.713073,6.960447,335.310805,430.421707,14.250886,66.125661,3.914305,1
6.088022,162.278357,23567.132875,7.698582,372.835081,387.970635,13.663607,75.266064,4.173083,0
7.10314,193.625274,22648.128751,7.235242,327.75755,431.86412,14.3454,67.280015,4.02627,1
7.170438,196.517101,22920.99357,7.188215,332.876224,428.831371,14.144284,65.71853,3.973943,1
7.080492,195.802166,21807.983781,7.023871,335.567465,433.083871,14.376294,66.020869,4.001915,1
7.245405,195.033954,22081.853767,7.298382,333.686939,429.889962,14.601501,65.244614,4.016323,0
6.793699,227.225751,14470.053549,8.471509,274.444719,360.755674,19.402149,40.290591,4.822958,0
7.089098,194.890637,21309.642208,7.132843,334.498818,419.920754,14.474494,66.307524,3.930532,0
7.21299,198.406722,23393.19401,7.294804,330.242307,425.703177,14.187333,66.287535,4.016345,1
7.203658,197.397597,22393.143238,7.160392,329.021817,418.027056,14.33458,68.215505,4.045819,1
7.12801,195.700933,22368.881992,7.116738,333.615415,425.740619,14.553274,66.070353,3.994461,1
8.116447,208.689153,23985.864422,7.51387,346.423787,436.290552,9.612293,67.381157,2.934697,0
7.247409,194.780874,22758.773681,7.231183,333.828154,424.418278,14.356058,67.600603,3.994807,1
7.163999,203.781598,34226.072127,9.412035,320.258917,415.577513,16.221044,90.184208,3.354322,0
7.081088,196.01223,22175.910375,7.053594,334.064629,428.328048,14.482696,64.447438,3.920125,0
7.280652,199.238272,22038.905535,7.278456,332.170172,419.575381,13.913592,67.687433,3.963513,1
7.146223,196.459671,22223.726169,7.166229,335.192088,422.211002,14.50388,67.927376,3.903381,0
7.207585,198.713261,22781.306248,7.302017,331.671986,422.37738,14.205614,67.915804,3.96171,1
7.346627,200.526435,22125.074165,7.331787,332.478847,427.447426,14.190321,66.398671,4.033213,1
6.971109,193.843042,21354.807227,7.060225,334.070357,430.373863,14.198004,66.531772,3.95198,0
7.225331,196.684159,22476.034596,7.072444,333.298839,422.442491,14.297254,66.116293,3.908932,1
7.249563,196.82481,22069.675175,7.064161,331.956581,421.306818,14.160199,68.293424,3.941244,0
7.088217,194.493061,21996.078937,7.294472,331.937875,424.673276,14.252254,67.173761,4.002387,1
7.083852,194.743001,22006.635456,7.181247,332.165402,430.19202,14.463565,65.312519,4.005759,0
7.138538,198.269599,22622.398045,7.158107,334.162772,427.663179,14.261543,67.178192,3.907131,1
7.120475,196.588011,22195.619888,7.128398,336.727596,417.341906,14.106307,66.122445,3.986952,1
6.912468,197.110922,21735.292708,7.175986,335.428724,423.095943,14.392956,66.218613,3.945521,0
7.072862,192.064979,22672.085313,7.251858,331.527691,425.874972,13.997721,66.790521,3.991041,1
7.083148,198.482506,21568.181473,6.958198,333.306157,425.094828,14.238123,66.195608,3.949833,0
7.07586,199.670357,22516.153617,7.114931,334.028914,421.129124,13.790706,66.27134,4.019924,1
8.25083,184.385124,21616.633855,7.166734,305.177426,412.947116,13.791337,71.799129,2.604708,1
7.127188,198.606019,22254.988228,7.124365,330.466659,425.600864,14.301157,67.75094,4.026877,1
6.99166,197.007649,21367.924133,7.138785,333.134197,422.857602,14.41902,67.511076,3.946616,0
6.900451,197.539112,21955.108851,7.118849,331.863842,425.786496,14.273456,66.061768,4.024175,0
7.060129,196.303995,22905.638937,7.134245,334.381667,426.25629,14.136587,66.263133,4.005707,1
7.118909,194.339143,21887.907206,7.048597,331.182779,433.461465,14.461943,66.044004,3.934589,0
6.967757,197.704027,21913.768496,7.274314,332.984193,427.601963,14.553298,64.565482,3.936584,0
7.040665,196.051799,20620.398989,7.105378,333.476399,420.335179,14.397971,67.1507,3.981484,0
6.953014,195.767219,21944.78486,7.122713,334.470531,425.967605,14.32674,67.622615,3.97387,0
7.100818,193.23227,21797.015729,7.138753,334.777434,427.482096,14.062504,65.875427,3.969003,1
6.336589,106.380113,15570.142322,6.851405,441.587654,380.433019,5.218233,48.735514,4.356594,1
6.997139,194.087934,20616.062003,7.115838,334.69878,424.951842,14.270917,65.977682,3.90094,0
7.070128,197.268605,21172.331841,6.967658,334.748593,428.312946,14.521058,66.27306,3.959334,0
7.138673,196.396135,23182.537104,7.200363,332.659406,425.956286,14.261529,67.281753,3.964152,1
7.052223,197.379451,21802.517339,7.198906,330.984168,429.879262,14.26755,67.714579,3.990476,1
7.081595,192.905117,21804.802518,7.101563,330.392704,424.982541,14.16918,66.514411,3.941326,1
7.155616,196.672712,23099.180897,7.269548,329.950641,427.912282,14.496236,66.244953,4.057749,1
7.147139,197.281612,21655.505682,7.132641,336.225076,438.645519,14.196025,68.010067,3.952219,0
7.214871,198.302639,21106.524131,7.013984,329.905342,424.403132,14.415204,66.455952,3.974353,0
7.165283,194.114663,22268.90477,7.080498,332.314137,419.004136,14.545882,67.275702,3.908795,1
6.342671,157.046125,21079.606206,7.275078,318.853448,351.024256,14.019149,64.407498,4.582592,0
7.088039,196.25145,21395.300324,7.169499,337.90613,423.699515,14.537795,66.895734,3.988775,1
7.123134,195.12207,22351.038993,7.144418,336.593966,419.308436,14.37726,66.400363,4.003364,1
7.145444,197.58205,22482.100498,7.179983,331.810731,419.869002,14.277613,67.002983,4.054332,1
7.184435,196.92437,21629.379328,7.13323,336.40584,428.419129,13.85901,68.332733,4.022588,1
7.11194,196.718481,22645.075658,7.313801,334.533392,431.600755,14.733426,66.738784,4.046261,1
7.149448,194.81244,22264.643801,6.998026,329.660405,421.629851,14.5827,67.309788,3.934027,1
9.130769,266.744959,9929.19481,6.011964,352.153214,542.806782,10.974207,65.782453,4.771444,1
6.953155,198.545903,22304.586897,7.115541,336.620471,427.602322,14.26065,66.532294,4.075186,1
7.003243,194.709939,22308.357532,7.096762,332.17854,427.498171,13.935094,66.285346,3.996878,1
5.632732,283.997284,28315.437777,7.144655,318.465146,425.984213,11.813231,67.651025,5.114607,1
6.945265,197.011988,21436.673809,7.049813,335.355065,432.271423,14.367935,66.6357,4.032052,0
8.862868,181.665398,17465.095886,7.131704,356.48189,529.086003,15.430418,60.606603,5.758676,0
7.077702,194.558496,21687.615552,6.992694,331.012911,421.780436,14.38939,65.214566,3.971323,0
7.111634,197.692601,22624.550946,7.199838,333.556881,425.047947,14.244919,65.933643,4.007332,1
7.145517,197.58886,21878.152794,7.20239,330.904379,420.527634,14.114546,67.282203,4.049083,1
7.068323,195.769027,22724.382301,7.113995,327.229937,423.290495,14.283158,66.450813,3.941247,1
7.096397,198.322797,21386.058887,7.094371,333.631163,430.738019,14.299766,67.056795,3.958246,0
7.86465,218.153107,23045.726247,7.432011,349.922852,414.365149,14.785983,72.60798,3.585934,0
6.980751,196.54798,21978.752314,7.081928,333.64307,430.532147,14.362349,65.944993,3.942866,0
7.101643,197.953484,22943.012159,7.280516,331.78898,428.613618,14.258379,66.114389,3.932068,1
7.02512,197.357453,21949.607552,7.021828,333.873259,435.689285,14.438716,66.632937,3.940156,0
6.539115,218.619699,23308.296877,7.177445,355.443831,585.166427,10.742146,40.773856,4.211672,1
7.132114,197.465328,21592.366567,7.122667,331.464282,426.466981,14.186581,66.859223,3.994318,0
7.073551,196.462156,22267.061164,7.155709,328.352544,421.86845,14.522029,66.183077,3.965779,1
7.207887,175.870294,35804.292613,8.066059,320.102173,468.562829,16.164091,71.146661,3.762741,1
7.115586,196.946484,22570.293297,7.230851,328.520219,418.700241,14.339509,65.678012,3.992078,1
7.153679,196.411894,22618.619072,7.282186,329.751143,423.215066,14.220906,67.44977,3.909067,1
7.044071,194.857043,21852.050426,7.112033,332.681205,426.203842,14.085221,65.651598,3.955652,0
7.093366,194.909803,22852.013567,7.232388,334.179849,422.321351,14.401278,67.566679,3.951374,1
7.112013,196.85769,22109.619728,7.239863,333.551962,423.558187,14.172954,65.327886,3.989686,1
7.177847,196.81624,22339.887839,7.228288,327.57523,427.8082,14.278049,65.971057,3.929094,1
7.203764,198.073363,21267.278056,7.000618,334.059386,425.979088,14.429337,66.300081,3.935299,0
7.170171,196.153152,22575.615202,7.116232,332.808438,423.392544,14.473737,65.929801,3.961119,1
7.10197,197.705903,22205.336036,7.196243,332.315791,422.969301,14.000055,66.65099,4.016695,1
7.018246,195.888658,23170.0906,7.230176,332.220839,431.027784,14.138945,67.848422,3.902891,1
6.951087,196.693794,21729.691782,6.998062,332.034106,426.385179,14.24457,64.628977,3.965651,0
7.155023,194.913557,21873.234653,7.134398,330.212842,420.767815,14.178363,66.872819,4.005812,1
7.059077,195.957576,22192.340856,7.018641,334.873615,425.972655,14.384475,65.626759,3.968008,0
7.109659,197.524938,20591.394795,6.966744,334.236262,429.957346,14.819611,64.809007,3.985698,0
7.26032,194.247742,8127.071254,6.674032,394.555835,312.349017,16.005022,65.02396,4.282315,0
6.037428,227.033994,12988.791229,8.476905,392.380529,306.386283,7.122391,41.190507,3.594217,1
7.20549,196.482554,21993.187296,7.243469,332.865281,429.489567,14.328321,67.260151,4.00006,1
7.308049,274.70495,14600.539522,8.105803,384.564852,415.607278,16.761625,68.937227,3.69612,0
7.015809,195.290853,21364.486583,7.154589,337.53495,433.152599,14.432579,65.728208,3.875973,0
7.006173,194.047028,21785.18653,7.084023,336.181337,425.380317,14.239591,66.939069,4.030491,0
7.06846,195.288963,21674.491056,7.103588,333.481496,428.747585,13.998728,65.905607,3.930379,0
6.629985,195.70038,21495.537558,6.546464,363.691949,335.80471,11.395098,66.165224,2.534499,0
7.018645,198.357328,22285.079256,7.195701,333.552418,419.254543,14.350505,65.402375,3.98178,1
7.056611,195.532484,21669.497232,7.032265,335.23023,428.862885,14.465867,65.562855,3.92869,0
7.123622,195.411203,21336.73911,7.010077,332.471145,433.472866,14.386318,67.129809,4.00111,0
7.224563,195.777364,22387.890144,7.130044,329.121247,430.301389,14.299722,66.380287,4.061139,1
7.019309,195.884399,21677.095377,7.054937,335.268147,426.141135,14.10034,65.773846,3.921013,0
7.092508,196.808703,22630.203476,7.213798,329.89266,425.529399,13.852967,66.351916,3.952629,1
7.10727,196.56413,22512.224112,7.194903,330.731562,426.292546,14.078499,66.10389,3.938111,1
7.085592,197.140296,22100.273208,7.240875,331.973281,424.222097,14.367439,64.563162,3.933477,1
6.927948,192.594583,20989.998069,7.111978,333.764962,429.28439,14.332605,66.923366,3.97834,0
7.248191,195.512635,22004.571706,7.031305,332.275469,431.58706,14.314627,66.322666,4.002054,0
5.477283,165.436093,29046.083515,5.523011,370.893085,488.774595,17.265186,80.234797,6.357439,0
7.170548,196.262455,22428.513908,7.234256,331.705421,426.614965,14.220982,66.942712,4.082959,1
7.186466,196.866207,22014.633242,7.003621,339.781506,429.349947,14.300915,67.401098,3.92017,0
7.089131,196.669076,21940.407321,7.153415,332.699061,426.127472,14.389754,66.157509,4.036453,0
7.191204,197.418798,20673.95469,7.09563,335.132279,425.278246,14.527472,65.961106,3.930473,0
7.187201,195.536591,22596.584672,7.136574,337.650831,419.307102,14.337296,67.342211,4.054351,1
7.822257,200.002793,22411.006864,5.283594,343.080377,593.483602,12.273073,75.256212,3.080866,0
4.126529,125.474884,11215.945902,5.366011,261.444798,445.241457,18.575921,86.433655,4.460201,0
7.066896,196.724746,22420.230746,7.265902,335.123072,428.886879,14.263123,67.074829,3.975565,1
7.155611,194.877256,21561.123845,7.110579,333.656462,432.330988,14.17311,65.838008,3.918741,0
7.075297,194.200665,21175.775165,7.063132,333.652507,424.569028,14.353219,65.483261,3.974867,0
7.503086,186.713329,32000.178936,7.641776,315.974147,473.531611,12.049131,43.280476,4.305514,1
7.130353,195.166516,22418.521447,7.156534,329.703054,419.080334,14.190517,65.54315,3.95659,1
7.020971,195.918303,21485.847739,7.019282,332.814656,430.637117,14.470552,67.697333,3.912803,0
7.238648,195.613341,21565.440906,7.095263,332.829069,426.360715,14.267106,65.859665,3.978627,0
7.073473,194.461197,21951.368744,7.077604,335.432478,419.875824,14.306482,64.515396,4.015702,0
6.84606,177.829127,16515.670391,6.14721,308.901696,542.997099,12.626474,60.900254,4.709374,0
7.133203,199.666276,22417.958216,7.192464,333.422721,416.798803,14.307727,66.548909,3.973113,1
